&FORCE_EVAL
  &DFT
    BASIS_SET_FILE_NAME  /scratch-shared/fza900/BASIS_ADMM_MOLOPT
    BASIS_SET_FILE_NAME  /scratch-shared/fza900/BASIS_MOLOPT
    &MGRID
      CUTOFF  400
      NGRIDS  4
    &END
    POTENTIAL_FILE_NAME  /scratch-shared/fza900/GTH_POTENTIALS
    &PRINT
      &MO
        ADD_LAST  numeric
        &EACH
          QS_SCF  0
        &END
        EIGENVALUES
        EIGENVECTORS
        FILENAME  /scratch-shared/fza900/mo_coeffs.out
        MO_INDEX_RANGE  7 46
        NDIGITS  36
        OCCUPATION_NUMBERS
      &END
    &END
    &QS
      METHOD  gpw
    &END
    &SCF
      ADDED_MOS  20
      &DIAGONALIZATION
        JACOBI_THRESHOLD  1e-05
      &END
      EPS_SCF  0.001
      MAX_SCF  200
      SCF_GUESS  restart
    &END
    &XC
      &XC_FUNCTIONAL pbe
      &END
    &END
  &END
  &SUBSYS
    &COORD  
C  -2.58000000e+00   6.80000000e-02   0.00000000e+00
H  -2.04700000e+00  -8.59000000e-01   0.00000000e+00
H  -3.65000000e+00   6.80000000e-02   0.00000000e+00
C  -1.90500000e+00   1.24300000e+00   0.00000000e+00
H  -2.43800000e+00   2.17100000e+00   0.00000000e+00
H  -8.35000000e-01   1.24300000e+00   0.00000000e+00
    &END
    &CELL
      ABC   [angstrom] 12.74 12.74 12.74
      PERIODIC  xyz
    &END
    &KIND  C
      BASIS_SET  DZVP-MOLOPT-SR-GTH-q4
      POTENTIAL  GTH-PBE-q4
    &END
    &KIND  H
      BASIS_SET  DZVP-MOLOPT-SR-GTH-q1
      POTENTIAL  GTH-PBE-q1
    &END
  &END
&END

&GLOBAL
  PRINT_LEVEL  low
  PROJECT  ethylene
  RUN_TYPE  energy
&END

