 # Version information for this restart file 
 # current date 2020-03-19 17:55:09.565
 # current working dir /Users/bvanbeek/Documents/GitHub/qmflows/test/test_files/plams_workdir.006/cp2k_mm_opt
 # Program compiled at                             Fri Apr 19 11:24:34 CEST 2019
 # Program compiled on                                             192.168.1.124
 # Program compiled for                           Darwin-IntelMacintosh-gfortran
 # Source code revision number                                         svn:18464
 &GLOBAL
   PRINT_LEVEL  LOW
   PROJECT_NAME cp2k
   RUN_TYPE  GEO_OPT
 &END GLOBAL
 &MOTION
   &GEO_OPT
     TYPE  MINIMIZATION
     OPTIMIZER  LBFGS
     MAX_ITER  500
     STEP_START_VAL  499
   &END GEO_OPT
 &END MOTION
 &FORCE_EVAL
   METHOD  FIST
   &MM
     &FORCEFIELD
       PARMTYPE  CHM
       PARM_FILE_NAME /Users/bvanbeek/Documents/GitHub/qmflows/test/test_files/Cd68Cl26Se55__26_acetate.prm
       VDW_SCALE14     1.0000000000000000E+00
       EI_SCALE14     1.0000000000000000E+00
       SHIFT_CUTOFF  T
       DO_NONBONDED  T
       IGNORE_MISSING_CRITICAL_PARAMS  T
       &SPLINE
         R0_NB     2.5000000000000000E-01
       &END SPLINE
       &NONBONDED
         &LENNARD-JONES
           ATOMS Cd C2O3
           EPSILON     7.7847969578400509E+01
           SIGMA     2.9841000000000002E+00
         &END LENNARD-JONES
         &LENNARD-JONES
           ATOMS Cd C331
           EPSILON     7.7847969578400509E+01
           SIGMA     2.9841000000000002E+00
         &END LENNARD-JONES
         &LENNARD-JONES
           ATOMS Cd Cd
           EPSILON     3.7288523243435542E+01
           SIGMA     1.2340000000000000E+00
         &END LENNARD-JONES
         &LENNARD-JONES
           ATOMS Cd HGA3
           EPSILON     5.0422537503269112E+01
           SIGMA     2.5541999999999998E+00
         &END LENNARD-JONES
         &LENNARD-JONES
           ATOMS Cd O2D2
           EPSILON     2.2056086015651550E+02
           SIGMA     2.4710000000000001E+00
         &END LENNARD-JONES
         &LENNARD-JONES
           ATOMS Cd Se
           EPSILON     1.8312137123193244E+02
           SIGMA     2.9399999999999999E+00
         &END LENNARD-JONES
         &LENNARD-JONES
           ATOMS Se C2O3
           EPSILON     8.7962670215283850E+01
           SIGMA     3.5884999999999998E+00
         &END LENNARD-JONES
         &LENNARD-JONES
           ATOMS Se C331
           EPSILON     8.7962670215283850E+01
           SIGMA     3.5884999999999998E+00
         &END LENNARD-JONES
         &LENNARD-JONES
           ATOMS Se HGA3
           EPSILON     5.6964383686327977E+01
           SIGMA     3.1587000000000001E+00
         &END LENNARD-JONES
         &LENNARD-JONES
           ATOMS Se O2D2
           EPSILON     1.9404122216826917E+02
           SIGMA     3.5259999999999998E+00
         &END LENNARD-JONES
         &LENNARD-JONES
           ATOMS Se Se
           EPSILON     5.1328331590154185E+01
           SIGMA     4.8520000000000003E+00
         &END LENNARD-JONES
       &END NONBONDED
       &CHARGE
         ATOM C2O3
         CHARGE     4.5240000000000002E-01
       &END CHARGE
       &CHARGE
         ATOM Cd
         CHARGE     9.7680000000000000E-01
       &END CHARGE
       &CHARGE
         ATOM O2D2
         CHARGE    -4.7039999999999998E-01
       &END CHARGE
       &CHARGE
         ATOM Se
         CHARGE    -9.7680000000000000E-01
       &END CHARGE
     &END FORCEFIELD
     &POISSON
       PERIODIC  NONE
       &EWALD
         EWALD_TYPE  NONE
       &END EWALD
     &END POISSON
     &PRINT
       &FF_INFO  LOW
         SPLINE_INFO  F
         SPLINE_DATA  F
       &END FF_INFO
     &END PRINT
   &END MM
   &SUBSYS
     &CELL
       A     5.0000000000000007E+01    0.0000000000000000E+00    0.0000000000000000E+00
       B     0.0000000000000000E+00    5.0000000000000007E+01    0.0000000000000000E+00
       C     0.0000000000000000E+00    0.0000000000000000E+00    5.0000000000000007E+01
       PERIODIC  NONE
       MULTIPLE_UNIT_CELL  1 1 1
     &END CELL
     &COORD
Cd   -2.6843502089332767E+00   -1.5260630934611683E+00   -4.2250490639592364E+00
Cd   -2.6837155275502926E+00   -4.3687026167811016E+00   -8.3175593434983686E-01
Cd   -5.0825496540071153E+00   -6.1875083636962658E-01   -5.6615380254150283E-01
Cd    8.4757539613475230E-01    7.8649179680845382E-01   -5.0583228012635884E+00
Cd    9.5222840932793773E-01   -2.0281515541655497E+00   -1.7659568196708233E+00
Cd   -1.5378759792644527E+00    1.8397374575516947E+00   -1.5043303751670880E+00
Cd    7.9729430883892882E-01   -4.8480684098220834E+00    1.6337304867125435E+00
Cd   -1.5425802178297130E+00   -1.1058770108385103E+00    1.9806407461153646E+00
Cd   -3.8468731213674343E+00    2.6035924733742242E+00    2.1419504190555090E+00
Cd    4.5891116960555243E+00    3.0952685812951375E-01   -2.5619707092501991E+00
Cd    2.1074607861738590E+00    4.1589594870620479E+00   -2.2800686106141188E+00
Cd    4.5735626458321716E+00   -2.4147884627372846E+00    7.7148638678774395E-01
Cd    2.2315981060958805E+00    1.2849763512369956E+00    1.0960509633689657E+00
Cd   -1.8164743848794743E-01    4.9952854452513851E+00    1.2743952026645262E+00
Cd    2.1201095535264325E+00   -1.4860120263279055E+00    4.4318915791183251E+00
Cd   -1.8396508175550350E-01    2.1692381453684684E+00    4.6616352583001293E+00
Se   -1.2330325746152591E+00   -3.2731378966916180E+00   -2.8038267681056359E+00
Se   -3.5955456487413593E+00    4.1033521899998321E-01   -2.5757050594716184E+00
Se   -3.6228460567788794E+00   -2.4037807177466295E+00    8.1020010462764891E-01
Se    2.4574975730111936E+00   -8.4788220175535778E-01   -3.7039903364095412E+00
Se    9.7531017401189163E-02    2.8307700206952586E+00   -3.4757718344957382E+00
Se    2.4421453199559662E+00   -3.7627636020449891E+00   -2.0289940928515229E-01
Se    4.7414085199587522E-02   -2.4563140513018389E-02   -4.9538142896077400E-02
Se   -2.3411683043009441E+00    3.7309298136178475E+00    2.5031476922002571E-01
Se    6.9601245305223255E-02   -2.8809970223257420E+00    3.3432213030907483E+00
Se   -2.3523432869946603E+00    9.1832137072724929E-01    3.6086622472677883E+00
Se    3.6782860512092541E+00    2.3437344086686802E+00   -1.0498357328436756E+00
Se    3.6738401184533287E+00   -5.5520955971118280E-01    2.4622649624576840E+00
Se    1.2845110862301905E+00    3.2379902398180072E+00    2.6923445869191869E+00
Cd   -4.1449122509995089E+00   -5.0111508647822927E+00   -6.7176208810552263E+00
Cd   -6.0019502185693598E+00   -8.0704535456707738E-01   -6.7246690377609051E+00
Cd   -4.0320105640646622E+00   -7.4542314971100350E+00   -3.7413173634334491E+00
Cd   -6.0980020985245780E+00   -3.7593309338505794E+00   -3.2305385427291573E+00
Cd   -8.6100415815090194E+00   -3.7743512634893374E-02   -2.9349066576477476E+00
Cd   -6.1519329909086364E+00   -6.6255071553357352E+00    2.3100395506790963E-01
Cd   -8.5436142236938064E+00   -2.8380639839095401E+00    5.7309669668160257E-01
Cd   -3.5569027772623152E-01   -2.4724859699817099E+00   -7.7989582574485343E+00
Cd   -2.6365079028245111E+00    1.3987366680905340E+00   -7.6387073682422555E+00
Cd   -1.5352289873500868E-01   -5.5141992468635399E+00   -4.6570114881699194E+00
Cd   -5.3038504080970892E+00    2.4569229622636093E+00   -4.1288199448094680E+00
Cd   -4.5259313350722830E-01   -8.0901299956692032E+00   -1.1186995156116799E+00
Cd   -7.3789574920359238E+00    3.2876478779465006E+00   -2.3803334799460099E-01
Cd   -2.8450019650043576E+00   -7.2263212906287624E+00    2.5078925912261969E+00
Cd   -5.2979090513394906E+00   -3.5898656483445657E+00    3.1134613837459217E+00
Cd   -7.5348661118020654E+00    2.7700200510459305E-01    2.9936530603007698E+00
Cd    3.0626722274295703E+00   -3.5202991549924234E-01   -8.5029433411023874E+00
Cd    7.0881503442342952E-01    3.5806974779325662E+00   -8.3358826435530240E+00
Cd    3.4339264946884991E+00   -3.0553921931379211E+00   -5.4701674303047829E+00
Cd   -1.5513331355479025E+00    4.6672348092985958E+00   -4.9630739130368280E+00
Cd    3.3833375950973625E+00   -5.8417916849944902E+00   -2.0313860901444074E+00
Cd   -3.9987553511199523E+00    5.7764428931955756E+00   -1.4524451790150679E+00
Cd    2.9649870513196750E+00   -8.5575688237520975E+00    1.1674873502913989E+00
Cd   -6.0460979207815422E+00    6.3375148858794343E+00    2.2891171473452241E+00
Cd    4.6353725785660393E-01   -7.6060509594729506E+00    4.9313995653691665E+00
Cd   -1.5781349963876370E+00   -3.9907357530432508E+00    5.4340690275207626E+00
Cd   -3.9991692497240723E+00   -3.4791038447403244E-01    5.7495098695324787E+00
Cd   -6.2997245281721659E+00    3.1707038998084336E+00    5.5827402917976592E+00
Cd    6.9365922396362194E+00   -7.0643990294814896E-01   -6.1235744083902270E+00
Cd    4.2504750709998707E+00    2.9741139865650741E+00   -5.5829023421318649E+00
Cd    1.9070701814512352E+00    7.0123774962968133E+00   -5.4826573895805106E+00
Cd    6.9871439800636335E+00   -3.1912890637454145E+00   -2.9224862595451193E+00
Cd   -2.2852525725064116E-01    7.8930771896636012E+00   -2.1772135207371974E+00
Cd    6.8541010140693501E+00   -6.0241518685937621E+00    3.9093331052617336E-01
Cd   -2.3696925000106299E+00    8.6678982548999208E+00    1.2859097977088580E+00
Cd    4.1610537134888954E+00   -4.9797195600157957E+00    3.8990427673483237E+00
Cd   -2.4799122223910919E+00    5.6796968179423617E+00    4.7255705846381391E+00
Cd    1.9522053801493959E+00   -4.2146198667521739E+00    7.7811667378039848E+00
Cd   -2.2352242587062193E-01   -7.0754194160014228E-01    8.0760789250691882E+00
Cd   -2.5518581317366018E+00    2.8957367407713415E+00    8.1625709801359232E+00
Cd    8.1735431020991580E+00    2.6083923278350034E+00   -3.2941889961892215E+00
Cd    5.5708633456974379E+00    6.4873117703618668E+00   -2.8171059691542615E+00
Cd    8.2365174890538881E+00   -2.6559653263989286E-01    6.7614604798404310E-02
Cd    5.9295026355401772E+00    3.6894246391380228E+00    1.9231007046218127E-01
Cd    3.0621404934756842E+00    7.4700328145180865E+00    8.0986930856035932E-01
Cd    8.1796066958049263E+00   -2.7946117727303492E+00    3.2317470553510064E+00
Cd    5.9342137130341852E+00    9.0829706032160895E-01    3.5790406753720050E+00
Cd    3.7215810886012211E+00    4.6625758436406031E+00    3.8546767565618474E+00
Cd    8.5003572108173875E-01    8.1739697814768473E+00    4.3930146946030701E+00
Cd    5.5230285181717269E+00   -1.5334624261396081E+00    6.8299789951189140E+00
Cd    3.2049322910597824E+00    1.9691433684415125E+00    7.1332536840439289E+00
Cd    1.0114461355799957E+00    5.6204111344398342E+00    7.2002785604573365E+00
Se   -2.4598636540721843E+00   -6.6033502849355434E+00   -5.5866702878906480E+00
Se   -4.8185810860552687E+00   -2.8072916610948622E+00   -5.3818851339334159E+00
Se   -7.2938640006707818E+00    6.6735107955734896E-01   -5.0178974246908821E+00
Se   -4.8323764407714132E+00   -5.7197858572889331E+00   -1.8685713500061270E+00
Se   -7.2855903541341016E+00   -1.9239551773762045E+00   -1.6192729327593394E+00
Se   -7.3328683134158252E+00   -4.8275899109020175E+00    1.6059070506676745E+00
Se    1.1840301655530086E+00   -4.0546843419049052E+00   -6.4597956908373044E+00
Se   -1.2189934596415519E+00   -4.2847223249760918E-01   -6.2682428257604430E+00
Se   -3.5143787029575804E+00    3.2088493086255494E+00   -5.9977407608654234E+00
Se    1.1395929561527940E+00   -7.0651083701790913E+00   -2.8643711612139691E+00
Se   -5.9993001399496766E+00    4.1929162471515786E+00   -2.2426730568266651E+00
Se   -1.2617213702137298E+00   -6.2044973669894743E+00    5.9768071572894754E-01
Se   -6.0454685726863309E+00    1.3693795595532539E+00    1.0693064111183457E+00
Se   -3.5151147096857200E+00   -5.3301455175378054E+00    4.1251078230554805E+00
Se   -6.0446553970881149E+00   -1.3621636930476904E+00    4.3813563602101775E+00
Se    4.9169174234201458E+00   -1.6400427837605647E+00   -7.3474169713570072E+00
Se    2.3998266073579870E+00    1.8806697882748569E+00   -7.1525342045990170E+00
Se    3.0234915299707910E-01    5.6387470736954182E+00   -6.9035313718542364E+00
Se    4.9069372427527229E+00   -4.4896372541108169E+00   -3.7734211938381566E+00
Se   -2.1930618226037901E+00    6.6019561290098272E+00   -3.2442740131324372E+00
Se    4.8677271482173454E+00   -7.4871392585859438E+00   -2.0120156421686108E-01
Se   -4.5771370508701983E+00    7.5486404621946894E+00    6.0433681424603314E-01
Se    2.3017673843122739E+00   -6.7224289336128775E+00    3.1132628860996161E+00
Se   -4.7999322724610227E+00    4.5831605727109901E+00    3.8392437593832027E+00
Se    2.5973891109220243E-01   -5.8008389334418302E+00    6.7228812242279803E+00
Se   -2.2462564790674704E+00   -1.9138970116184060E+00    7.0098749630874213E+00
Se   -4.7428717881386167E+00    1.9809766628664933E+00    7.2285042213372916E+00
Se    6.1781669088037310E+00    1.3958394743486890E+00   -4.6031668434579034E+00
Se    3.7115944144399236E+00    5.2912448514849242E+00   -4.3600411790834599E+00
Se    6.1379021855675884E+00   -1.3828684070813209E+00   -1.1473536046582338E+00
Se    1.2536716046296574E+00    6.1890781869285547E+00   -7.3128225215142129E-01
Se    6.1147400334826258E+00   -4.2229560081622735E+00    2.2384882726808937E+00
Se   -1.0545344917075012E+00    7.0458808289567143E+00    2.9031771701948181E+00
Se    3.6554881421597325E+00   -3.2872621035470577E+00    5.9197090284873788E+00
Se    1.2896052223289147E+00    3.9605695488633530E-01    6.1498866905198026E+00
Se   -1.0750135781923624E+00    4.1033657853128194E+00    6.3736379444055116E+00
Se    7.2692828062894872E+00    4.6997905560042330E+00   -2.1267145360606308E+00
Se    7.2853929895314335E+00    1.7293994917432924E+00    1.4273352474540781E+00
Se    4.7799119042873039E+00    5.6655042292643856E+00    1.5741657412616832E+00
Se    7.2741873460864142E+00   -1.1939414045903531E+00    5.0027801616254779E+00
Se    4.8254658869388622E+00    2.6363905455785557E+00    5.2269267192306321E+00
Se    2.5991476003867389E+00    6.5707874852209818E+00    5.4089909031069743E+00
C331   -1.6987305416042067E+00    8.2349407150941847E+00    8.2695789843259977E+00
C2O3   -1.5954125931372813E+00    7.6631782036318965E+00    6.8865752062256993E+00
O2D2   -2.6713884016593763E+00    7.3551877439915172E+00    6.3125830978425190E+00
O2D2   -4.2654677958819015E-01    7.5362024513432546E+00    6.4395273266931312E+00
HGA3   -1.1898893516725328E+00    9.2196848368512114E+00    8.2807438833219269E+00
HGA3   -1.2000375221000632E+00    7.5533112602020660E+00    8.9882167479895010E+00
HGA3   -2.7628492542824121E+00    8.3680276827689095E+00    8.5559808843202010E+00
C331    1.7877297547065922E+00    1.0975317609110888E+01   -3.9954039433843689E+00
C2O3    1.7798418354943573E+00    9.5518609333703584E+00   -4.4715805369272417E+00
O2D2    2.2887408476582425E+00    9.3129704762150833E+00   -5.5939790540492806E+00
O2D2    1.2739662788501327E+00    8.6900420945779135E+00   -3.7083934559725829E+00
HGA3    1.4242473308672217E+00    1.1030228911615076E+01   -2.9480545306107664E+00
HGA3    1.1319884738496413E+00    1.1580598038827773E+01   -4.6525932056438464E+00
HGA3    2.8230465988323576E+00    1.1367733297292627E+01   -4.0461433440888639E+00
C331   -5.1872608212370910E+00    1.4008579148802217E-01   -1.0831198126807566E+01
C2O3   -5.2743202335780150E+00   -1.9119703970508481E-01   -9.3704007075239630E+00
O2D2   -6.2159825718388806E+00   -9.4161053886124269E-01   -9.0170299765779767E+00
O2D2   -4.4083682546206697E+00    3.0682309400963848E-01   -8.6057957047807427E+00
HGA3   -4.3524548390294999E+00    8.4722286757322962E-01   -1.1011371459163620E+01
HGA3   -6.1422139793225679E+00    6.0690773435009993E-01   -1.1147538703014808E+01
HGA3   -5.0217174882300144E+00   -7.9408707284048552E-01   -1.1405580959133937E+01
C331    1.3076089242948594E+00   -2.2860399873458181E+00    1.1448546632615603E+01
C2O3    1.6189502989082734E+00   -2.8416787124516465E+00    1.0094043235704687E+01
O2D2    2.4078627030110726E+00   -3.8155008047495769E+00    1.0036032346173265E+01
O2D2    1.0573610770758426E+00   -2.3080152544561519E+00    9.1038009783005620E+00
HGA3    8.3363076344865250E-01   -3.0816753780604760E+00    1.2056835548416425E+01
HGA3    6.1434702986561729E-01   -1.4255376319752897E+00    1.1356178710459091E+01
HGA3    2.2479432254474934E+00   -1.9574169648986235E+00    1.1933577114494216E+01
C331   -7.6965875064961358E+00   -7.5683485262214196E+00   -4.7375886667218925E+00
C2O3   -6.9356354542415621E+00   -6.2748187758170877E+00   -4.7335277170393546E+00
O2D2   -7.5131784654976812E+00   -5.2808301994454032E+00   -4.2255658157320966E+00
O2D2   -5.7763280222511399E+00   -6.3142569095705019E+00   -5.2240979687474924E+00
HGA3   -7.1504428621988607E+00   -8.3149990171696917E+00   -4.1256387020680112E+00
HGA3   -7.7836594139194268E+00   -7.9284241939470395E+00   -5.7831271238176178E+00
HGA3   -8.7130541799417820E+00   -7.4139869543481156E+00   -4.3178552343850383E+00
C331    1.1700113580808070E+01   -2.5870704276056102E+00    1.0508521782888436E+00
C2O3    1.0328746097033857E+01   -2.7317809279723018E+00    1.6376208585550520E+00
O2D2    1.0143320120306159E+01   -3.7145226617290712E+00    2.3980670098113568E+00
O2D2    9.4637284050226356E+00   -1.8601526764344207E+00    1.3564575072503628E+00
HGA3    1.2436547708254460E+01   -2.5012767118581949E+00    1.8746912838806205E+00
HGA3    1.1747345909852028E+01   -1.6825555809722372E+00    4.1126648063576821E-01
HGA3    1.1929749597547303E+01   -3.4830340664178312E+00    4.4232014264883862E-01
C331   -1.0632039651570755E+01    2.7802179108820764E+00    4.4723313865376246E+00
C2O3   -9.2730418090756697E+00    2.3398022851962210E+00    4.0095588777101412E+00
O2D2   -9.1896860884700278E+00    1.9084910449403585E+00    2.8359488206052235E+00
O2D2   -8.3277112413418024E+00    2.4300520809753174E+00    4.8321662748293308E+00
HGA3   -1.0587017439570566E+01    3.8517576184748017E+00    4.7532881916062779E+00
HGA3   -1.0929829964790983E+01    2.1741900144292146E+00    5.3510253644396020E+00
HGA3   -1.1374419899138495E+01    2.6427986510522716E+00    3.6582113114055090E+00
C331    1.7738547909181848E+00    1.1421732948925879E+01    1.7539674733547559E+00
C2O3    1.5429925291681681E+00    1.0196456981227749E+01    2.5881950212927576E+00
O2D2    9.2984384395761699E-01    1.0363539246363047E+01    3.6697156388429031E+00
O2D2    1.9623203534432017E+00    9.0961941027476581E+00    2.1456541989421969E+00
HGA3    2.2864992122762424E+00    1.1149605855111657E+01    8.0788950246707047E-01
HGA3    2.3961291990596258E+00    1.2138986079271776E+01    2.3250817219159274E+00
HGA3    7.9395841665537847E-01    1.1889945120621492E+01    1.5282884508066343E+00
C331   -1.7238158136639776E+00   -1.1149957108417127E+01    3.8305257144492209E+00
C2O3   -1.0459265306995478E+00   -9.8303920381169672E+00    4.0641642567651930E+00
O2D2   -3.6489018692279690E-02   -9.8395451785830748E+00    4.8092225073773935E+00
O2D2   -1.5262857419406770E+00   -8.8186806905433990E+00    3.4918374040815916E+00
HGA3   -2.5644799960608773E+00   -1.1025560233079442E+01    3.1183041293955909E+00
HGA3   -2.1064528346072504E+00   -1.1539512861134508E+01    4.7958879836701014E+00
HGA3   -9.8822033851277968E-01   -1.1868789155806029E+01    3.4142543618588079E+00
C331    2.6548410519026349E+00    3.6534576479456500E+00    1.0501522742972284E+01
C2O3    1.9097316648833758E+00    4.2212875735954158E+00    9.3334162433869885E+00
O2D2    1.1018725200234019E+00    5.1630676509065481E+00    9.5289835926355178E+00
O2D2    2.1646965730154024E+00    3.7072174837397220E+00    8.2164336252931172E+00
HGA3    3.7402329094286220E+00    3.8205270107242120E+00    1.0343450301443026E+01
HGA3    2.4608842131205164E+00    2.5627502059027707E+00    1.0563724659444647E+01
HGA3    2.3312671462078458E+00    4.1474119857215781E+00    1.1440170728790397E+01
C331   -1.1365379768101920E+00    1.2021205926449518E+01   -1.1359531339198896E+00
C2O3   -1.2364367055627463E+00    1.0736747931819586E+01   -3.6132267450968841E-01
O2D2   -8.5702898070498190E-01    9.6824261781608598E+00   -9.2875703506581098E-01
O2D2   -1.7138994342773661E+00    1.0816428834879236E+01    7.9636856021368641E-01
HGA3   -4.7472161395518891E-01    1.2727120228868030E+01   -5.9319254714490433E-01
HGA3   -2.1495626902129810E+00    1.2463870179460137E+01   -1.2340302082749284E+00
HGA3   -7.2363984650984292E-01    1.1823069693299507E+01   -2.1462448095206486E+00
C331   -3.3555958782441770E+00   -3.6778395059127749E+00   -1.1013847074810814E+01
C2O3   -3.1170717720480421E+00   -3.5474507233998174E+00   -9.5349045975010807E+00
O2D2   -2.1199003782076407E+00   -2.8768911545639320E+00   -9.1637585191551363E+00
O2D2   -3.9532774626773848E+00   -4.1318527926069377E+00   -8.8021818404760470E+00
HGA3   -4.3591412632887891E+00   -3.2739574117146315E+00   -1.1258621009288966E+01
HGA3   -3.3181222276361244E+00   -4.7521086281590446E+00   -1.1284185483650388E+01
HGA3   -2.5814900974199890E+00   -3.1241624444700942E+00   -1.1581916669708598E+01
C331   -5.5334650336500326E+00   -1.0534838244358376E+01    1.7285563077951722E+00
C2O3   -5.4840379463835527E+00   -9.1595205617334354E+00    1.1306476524208560E+00
O2D2   -6.3632763890591715E+00   -8.8918452802540262E+00    2.7548400668094586E-01
O2D2   -4.5879148548991555E+00   -8.3748951078626153E+00    1.5332900110301431E+00
HGA3   -6.5337568889669395E+00   -1.0689530864431896E+01    2.1811388836168968E+00
HGA3   -4.7553188545028648E+00   -1.0639814561199614E+01    2.5101800306275459E+00
HGA3   -5.3710341597663200E+00   -1.1288127239624684E+01    9.3162361723585629E-01
C331   -1.1577399621917532E+01   -5.7784369465856389E-01    2.3565337108668576E+00
C2O3   -1.0416111572916464E+01   -1.2225858705432446E+00    1.6626615883269051E+00
O2D2   -1.0678292555130501E+01   -1.9478495449376281E+00    6.7165115226211392E-01
O2D2   -9.2619400129064964E+00   -1.0114932328525414E+00    2.1192664002098778E+00
HGA3   -1.1218527917560451E+01    1.1262425031274604E-02    3.2245921608826609E+00
HGA3   -1.2275019650552181E+01   -1.3665835692477368E+00    2.7015754127125198E+00
HGA3   -1.2096659819097699E+01    9.1319304815039568E-02    1.6434267532641775E+00
C331    4.7720141596913583E+00    9.7405952290751552E-02    1.0915181705018476E+01
C2O3    4.6041765089546578E+00    7.7043256216999728E-02    9.4222896825405211E+00
O2D2    4.4417170989860111E+00    1.1818367963834757E+00    8.8530735875049000E+00
O2D2    4.6458459988347149E+00   -1.0508273798855134E+00    8.8692548792161858E+00
HGA3    5.7436253515947620E+00   -3.6556073538956868E-01    1.1180180739665845E+01
HGA3    3.9495710857584458E+00   -4.8380033067745215E-01    1.1374991691017545E+01
HGA3    4.7427913005173510E+00    1.1400759815142107E+00    1.1292681828717431E+01
C331    1.0638572681007947E+01   -5.5852655670552238E+00   -1.6890779509219891E+00
C2O3    9.2637940011340199E+00   -4.9847891039722612E+00   -1.6336718633724900E+00
O2D2    8.8277767116151651E+00   -4.4606828071375926E+00   -2.6849795577439770E+00
O2D2    8.6652251043148176E+00   -5.0735499157577220E+00   -5.3383751141246671E-01
HGA3    1.0563662630802355E+01   -6.6750609827346885E+00   -1.5015968283892080E+00
HGA3    1.1271423426290943E+01   -5.1187874272762386E+00   -9.0924298663670189E-01
HGA3    1.1089675624149820E+01   -5.4092826471756092E+00   -2.6872923028089741E+00
C331    2.0490951523605244E-01   -1.1693316221448057E+01    4.8581288761488184E-01
C2O3    1.1145291154404497E+00   -1.0531373300465658E+01    7.5190710982847919E-01
O2D2    2.1825697327623255E+00   -1.0733257381343586E+01    1.3774736858533749E+00
O2D2    7.2853213562823005E-01   -9.4166286063872686E+00    3.2107321197820604E-01
HGA3    1.0230006083662309E-01   -1.1821820384817567E+01   -6.1084972658009240E-01
HGA3   -7.9192542569314528E-01   -1.1483583870770314E+01    9.2430193781431569E-01
HGA3    6.2196198989929674E-01   -1.2620741965660665E+01    9.3237086760194521E-01
C331    1.0571570099322338E+01   -2.3006081401848704E+00   -4.9147498285579569E+00
C2O3    9.2623803378492280E+00   -1.6188330101348012E+00   -5.1732147671802382E+00
O2D2    9.2515068808199725E+00   -7.0905598834920769E-01   -6.0395402070091428E+00
O2D2    8.2572418783521577E+00   -2.0027631437956348E+00   -4.5206408551958503E+00
HGA3    1.0881865955939585E+01   -2.8475778396133711E+00   -5.8267771355750826E+00
HGA3    1.0465562951117246E+01   -3.0135782446791870E+00   -4.0708296571965592E+00
HGA3    1.1335798470805447E+01   -1.5412976450746991E+00   -4.6597135264112000E+00
C331    4.8835774578861733E+00    1.0787679926295034E+01   -1.5489217778695030E+00
C2O3    4.3765076367734004E+00    9.3741386069349453E+00   -1.5467308144446237E+00
O2D2    3.4747407202938749E+00    9.0972559238923481E+00   -7.2147724146613834E-01
O2D2    4.9107875615375773E+00    8.5963530902205072E+00   -2.3760053127180281E+00
HGA3    4.7503864294175271E+00    1.1222303412809516E+01   -2.5597594805937338E+00
HGA3    5.9611932900964213E+00    1.0776086430400690E+01   -1.2906003586023223E+00
HGA3    4.3303366520025621E+00    1.1398530336084471E+01   -8.0610930252740809E-01
C331   -1.1753880899793108E+01    2.2604049135133009E+00   -8.3448298281089905E-01
C2O3   -1.0259650766672467E+01    2.1580534009691581E+00   -9.1852576417225018E-01
O2D2   -9.6013599801245721E+00    3.1566656984849963E+00   -5.4606514545720475E-01
O2D2   -9.8041938243518327E+00    1.0763740510446140E+00   -1.3658010527252602E+00
HGA3   -1.2135877162257902E+01    1.4237040605327764E+00   -2.1723823025255681E-01
HGA3   -1.2170303019183571E+01    2.1905031360976026E+00   -1.8589524318699497E+00
HGA3   -1.2045080301194227E+01    3.2278818955055919E+00   -3.7574546788252722E-01
C331   -3.1935375847893992E+00   -1.1539248949955351E+01   -2.0152948103534696E+00
C2O3   -3.1629909996998875E+00   -1.0048197474534874E+01   -2.1901739014867534E+00
O2D2   -2.2500156618372906E+00   -9.4159781665993467E+00   -1.6000915856997227E+00
O2D2   -4.0634166982335218E+00   -9.5651386426546825E+00   -2.9212359710131230E+00
HGA3   -3.0669793912620165E+00   -1.2007847952523456E+01   -3.0116848637918454E+00
HGA3   -4.1729204792337748E+00   -1.1837695942482252E+01   -1.5890723491795007E+00
HGA3   -2.3758356544717736E+00   -1.1868589560736840E+01   -1.3430986511018541E+00
C331   -1.4755212463026106E+00    2.2475957202184240E+00   -1.1744014260757554E+01
C2O3   -8.0693919343237264E-01    2.6069048174944567E+00   -1.0451109665939342E+01
O2D2    1.3874531441831908E-01    3.4289692764531523E+00   -1.0529027110314470E+01
O2D2   -1.2286774184904199E+00    2.0666964137451918E+00   -9.3957807760214376E+00
HGA3   -1.9857745733036991E+00    3.1485302806557285E+00   -1.2138767365061677E+01
HGA3   -2.2140581398041475E+00    1.4368072791695403E+00   -1.1586330587203660E+01
HGA3   -7.0352049199448141E-01    1.9155928561622444E+00   -1.2468306093924090E+01
C331    3.8176993452181746E-01   -1.2425096644932063E+00   -1.1605356141507235E+01
C2O3    1.2466060852885805E+00   -8.7101237437673973E-01   -1.0443211428183838E+01
O2D2    2.2601093583642835E+00   -1.6670715003738387E-01   -1.0670699663745292E+01
O2D2    8.9960602387663946E-01   -1.2903146017666154E+00   -9.3113449567184983E+00
HGA3   -5.0837396159907122E-01   -1.8036976604296500E+00   -1.1254346660266913E+01
HGA3    9.7148779586893108E-01   -1.8732832679144951E+00   -1.2300912478520965E+01
HGA3    5.8321161825992597E-02   -3.1924541088042424E-01   -1.2125330717432087E+01
C331    1.1818325090250442E+01    1.8198356865729035E-01   -2.2489093387882533E+00
C2O3    1.0327727139398430E+01    1.5051151986351774E-01   -2.0720446786122109E+00
O2D2    9.8388282341132900E+00   -8.3941982148050343E-01   -1.4779709013647282E+00
O2D2    9.6948661075324374E+00    1.1361789048127984E+00   -2.5243428751965826E+00
HGA3    1.2216515055254831E+01    1.0781020023973280E+00   -1.7312906308783464E+00
HGA3    1.2051230655417745E+01    2.4003491222025669E-01   -3.3314340234959969E+00
HGA3    1.2279310221268759E+01   -7.3107161820783750E-01   -1.8177098436329040E+00
C331   -1.9098478050690970E-01    1.5210903959811757E+00    1.1736938029872784E+01
C2O3   -3.0121652855098779E-01    1.3211125095454879E+00    1.0253638540195237E+01
O2D2    6.2305369048440362E-01    6.8021994371481720E-01    9.6990463843672075E+00
O2D2   -1.3154725012099155E+00    1.8020542220108342E+00    9.6936766317357907E+00
HGA3   -1.0830432573702622E+00    1.0747476869715908E+00    1.2219741545980987E+01
HGA3   -1.4673673701564047E-01    2.6060096915591195E+00    1.1963474916866131E+01
HGA3    7.2580633632558489E-01    1.0253608156508358E+00    1.2118455698114472E+01
C331   -1.0017330109667281E+01    5.3378676549322659E+00    1.8100951183109137E+00
C2O3   -8.5647410329726874E+00    5.4873140747616631E+00    2.1196547715887828E+00
O2D2   -8.2366404770378594E+00    6.1589878593007645E+00    3.1282578351507011E+00
O2D2   -7.7577983146280065E+00    4.9383767225648025E+00    1.3286937357854050E+00
HGA3   -1.0265619086072626E+01    4.2570257205833624E+00    1.7959285286522753E+00
HGA3   -1.0210868315013746E+01    5.7687998633582813E+00    8.0717520717408731E-01
HGA3   -1.0632740663066897E+01    5.8568907968606529E+00    2.5725614542304163E+00
     &END COORD
     &KIND C2O3
       ELEMENT C
     &END KIND
     &KIND C331
       ELEMENT C
     &END KIND
     &KIND CD
       ELEMENT Cd
     &END KIND
     &KIND HGA3
       ELEMENT H
     &END KIND
     &KIND O2D2
       ELEMENT O
     &END KIND
     &KIND SE
       ELEMENT Se
     &END KIND
     &TOPOLOGY
       COORD_FILE_FORMAT  OFF
       NUMBER_OF_ATOMS  305
       CONN_FILE_NAME /Users/bvanbeek/Documents/GitHub/qmflows/test/test_files/Cd68Cl26Se55__26_acetate.psf
       CONN_FILE_FORMAT  PSF
       MULTIPLE_UNIT_CELL  1 1 1
       &CENTER_COORDINATES  T
         CENTER_POINT     0.0000000000000000E+00    0.0000000000000000E+00    0.0000000000000000E+00
       &END CENTER_COORDINATES
     &END TOPOLOGY
   &END SUBSYS
 &END FORCE_EVAL
