 # Version information for this restart file 
 # current date 2020-03-19 17:55:09.523
 # current working dir /Users/bvanbeek/Documents/GitHub/qmflows/test/test_files/plams_workdir.006/cp2k_mm_opt
 # Program compiled at                             Fri Apr 19 11:24:34 CEST 2019
 # Program compiled on                                             192.168.1.124
 # Program compiled for                           Darwin-IntelMacintosh-gfortran
 # Source code revision number                                         svn:18464
 &GLOBAL
   PRINT_LEVEL  LOW
   PROJECT_NAME cp2k
   RUN_TYPE  GEO_OPT
 &END GLOBAL
 &MOTION
   &GEO_OPT
     TYPE  MINIMIZATION
     OPTIMIZER  LBFGS
     MAX_ITER  500
     STEP_START_VAL  497
   &END GEO_OPT
 &END MOTION
 &FORCE_EVAL
   METHOD  FIST
   &MM
     &FORCEFIELD
       PARMTYPE  CHM
       PARM_FILE_NAME /Users/bvanbeek/Documents/GitHub/qmflows/test/test_files/Cd68Cl26Se55__26_acetate.prm
       VDW_SCALE14     1.0000000000000000E+00
       EI_SCALE14     1.0000000000000000E+00
       SHIFT_CUTOFF  T
       DO_NONBONDED  T
       IGNORE_MISSING_CRITICAL_PARAMS  T
       &SPLINE
         R0_NB     2.5000000000000000E-01
       &END SPLINE
       &NONBONDED
         &LENNARD-JONES
           ATOMS Cd C2O3
           EPSILON     7.7847969578400509E+01
           SIGMA     2.9841000000000002E+00
         &END LENNARD-JONES
         &LENNARD-JONES
           ATOMS Cd C331
           EPSILON     7.7847969578400509E+01
           SIGMA     2.9841000000000002E+00
         &END LENNARD-JONES
         &LENNARD-JONES
           ATOMS Cd Cd
           EPSILON     3.7288523243435542E+01
           SIGMA     1.2340000000000000E+00
         &END LENNARD-JONES
         &LENNARD-JONES
           ATOMS Cd HGA3
           EPSILON     5.0422537503269112E+01
           SIGMA     2.5541999999999998E+00
         &END LENNARD-JONES
         &LENNARD-JONES
           ATOMS Cd O2D2
           EPSILON     2.2056086015651550E+02
           SIGMA     2.4710000000000001E+00
         &END LENNARD-JONES
         &LENNARD-JONES
           ATOMS Cd Se
           EPSILON     1.8312137123193244E+02
           SIGMA     2.9399999999999999E+00
         &END LENNARD-JONES
         &LENNARD-JONES
           ATOMS Se C2O3
           EPSILON     8.7962670215283850E+01
           SIGMA     3.5884999999999998E+00
         &END LENNARD-JONES
         &LENNARD-JONES
           ATOMS Se C331
           EPSILON     8.7962670215283850E+01
           SIGMA     3.5884999999999998E+00
         &END LENNARD-JONES
         &LENNARD-JONES
           ATOMS Se HGA3
           EPSILON     5.6964383686327977E+01
           SIGMA     3.1587000000000001E+00
         &END LENNARD-JONES
         &LENNARD-JONES
           ATOMS Se O2D2
           EPSILON     1.9404122216826917E+02
           SIGMA     3.5259999999999998E+00
         &END LENNARD-JONES
         &LENNARD-JONES
           ATOMS Se Se
           EPSILON     5.1328331590154185E+01
           SIGMA     4.8520000000000003E+00
         &END LENNARD-JONES
       &END NONBONDED
       &CHARGE
         ATOM C2O3
         CHARGE     4.5240000000000002E-01
       &END CHARGE
       &CHARGE
         ATOM Cd
         CHARGE     9.7680000000000000E-01
       &END CHARGE
       &CHARGE
         ATOM O2D2
         CHARGE    -4.7039999999999998E-01
       &END CHARGE
       &CHARGE
         ATOM Se
         CHARGE    -9.7680000000000000E-01
       &END CHARGE
     &END FORCEFIELD
     &POISSON
       PERIODIC  NONE
       &EWALD
         EWALD_TYPE  NONE
       &END EWALD
     &END POISSON
     &PRINT
       &FF_INFO  LOW
         SPLINE_INFO  F
         SPLINE_DATA  F
       &END FF_INFO
     &END PRINT
   &END MM
   &SUBSYS
     &CELL
       A     5.0000000000000007E+01    0.0000000000000000E+00    0.0000000000000000E+00
       B     0.0000000000000000E+00    5.0000000000000007E+01    0.0000000000000000E+00
       C     0.0000000000000000E+00    0.0000000000000000E+00    5.0000000000000007E+01
       PERIODIC  NONE
       MULTIPLE_UNIT_CELL  1 1 1
     &END CELL
     &COORD
Cd   -2.6846845992138419E+00   -1.5259489068627885E+00   -4.2250447799554784E+00
Cd   -2.6843356398922071E+00   -4.3690448122963170E+00   -8.3178262705293859E-01
Cd   -5.0826328133183507E+00   -6.1887576158117963E-01   -5.6586559905412326E-01
Cd    8.4776544122838948E-01    7.8647763857000608E-01   -5.0585612368324480E+00
Cd    9.5220796734238444E-01   -2.0285299783825783E+00   -1.7659140873838057E+00
Cd   -1.5378648675268964E+00    1.8396466009082744E+00   -1.5043582068175134E+00
Cd    7.9735993023430873E-01   -4.8481769720056063E+00    1.6336608078645249E+00
Cd   -1.5427339518657723E+00   -1.1057169909155602E+00    1.9808263221425111E+00
Cd   -3.8466326085041076E+00    2.6038729380996957E+00    2.1424019585377789E+00
Cd    4.5888727312729420E+00    3.0960980712687469E-01   -2.5622144166700793E+00
Cd    2.1071086274103292E+00    4.1592057095691048E+00   -2.2799658775384812E+00
Cd    4.5736663538425368E+00   -2.4146217887568264E+00    7.7188723503480450E-01
Cd    2.2312006778675060E+00    1.2852129164518000E+00    1.0963958558397209E+00
Cd   -1.8170937724230005E-01    4.9949663717128976E+00    1.2741933825618283E+00
Cd    2.1196996931109564E+00   -1.4857126350372485E+00    4.4318315840495206E+00
Cd   -1.8440105330219633E-01    2.1693900983062369E+00    4.6619423434060376E+00
Se   -1.2332003147474573E+00   -3.2731727788361025E+00   -2.8035598361751184E+00
Se   -3.5962681384708732E+00    4.1035474319356219E-01   -2.5751009865297592E+00
Se   -3.6228524643000299E+00   -2.4035634739914431E+00    8.1024007759006844E-01
Se    2.4579236454154727E+00   -8.4768666911652335E-01   -3.7036915257351923E+00
Se    9.7618190775920433E-02    2.8304308626468453E+00   -3.4756644318094332E+00
Se    2.4423670920816201E+00   -3.7627449755280162E+00   -2.0263874434864412E-01
Se    4.7374030528272763E-02   -2.4053496229680255E-02   -4.9298026360028786E-02
Se   -2.3412525844191321E+00    3.7310818982929574E+00    2.5021231823266044E-01
Se    6.9378048074416152E-02   -2.8809540595638827E+00    3.3430946549439420E+00
Se   -2.3525673549393336E+00    9.1858974542594130E-01    3.6085710920340421E+00
Se    3.6785890612055026E+00    2.3440255540481081E+00   -1.0497042444639391E+00
Se    3.6734731872447886E+00   -5.5503436588013044E-01    2.4621369654534249E+00
Se    1.2846888570134138E+00    3.2380644636846072E+00    2.6923389165319227E+00
Cd   -4.1450636813308721E+00   -5.0122240354264402E+00   -6.7175733428205957E+00
Cd   -6.0027417281267459E+00   -8.0787722406076856E-01   -6.7249086419256825E+00
Cd   -4.0329074601116659E+00   -7.4543907331139403E+00   -3.7419968496532166E+00
Cd   -6.0977290194039782E+00   -3.7609479740837468E+00   -3.2307415396863162E+00
Cd   -8.6099047737497294E+00   -3.7934010463752089E-02   -2.9345957733144838E+00
Cd   -6.1520931579164158E+00   -6.6253677934866371E+00    2.3105638399574494E-01
Cd   -8.5437564434182001E+00   -2.8385599450018804E+00    5.7288224772237040E-01
Cd   -3.5603609514841539E-01   -2.4723168042783827E+00   -7.7988016687524677E+00
Cd   -2.6364362954686640E+00    1.3992108869984088E+00   -7.6384062064019460E+00
Cd   -1.5311557591972466E-01   -5.5142632030944432E+00   -4.6568659505423566E+00
Cd   -5.3043894491256030E+00    2.4565307977340072E+00   -4.1285693648270891E+00
Cd   -4.5253027837268694E-01   -8.0901465802645820E+00   -1.1182822390257425E+00
Cd   -7.3789474522513272E+00    3.2878673756106074E+00   -2.3774359128181791E-01
Cd   -2.8454149336891055E+00   -7.2262502665306778E+00    2.5078818491208126E+00
Cd   -5.2977655776158432E+00   -3.5895069273075046E+00    3.1131280457720423E+00
Cd   -7.5352342050158754E+00    2.7690611001674614E-01    2.9934704452051024E+00
Cd    3.0631333368342886E+00   -3.5225650139151482E-01   -8.5032478489682735E+00
Cd    7.0819168973139934E-01    3.5802262004581609E+00   -8.3354664462764063E+00
Cd    3.4339888983118945E+00   -3.0556215620752676E+00   -5.4702673026881055E+00
Cd   -1.5515481677279956E+00    4.6669842134000943E+00   -4.9630764537134064E+00
Cd    3.3828952731684709E+00   -5.8417243224194717E+00   -2.0322340314022322E+00
Cd   -3.9991464011246460E+00    5.7767580810440897E+00   -1.4522823859487772E+00
Cd    2.9648204088797323E+00   -8.5570637290866536E+00    1.1678051832381553E+00
Cd   -6.0459529183658054E+00    6.3384967618910304E+00    2.2892527341123081E+00
Cd    4.6365526604185103E-01   -7.6060675485365747E+00    4.9313347852168921E+00
Cd   -1.5781183089498534E+00   -3.9910296211188543E+00    5.4342930795337159E+00
Cd   -3.9998296064479826E+00   -3.4815756938858566E-01    5.7501153823481213E+00
Cd   -6.2998458688677648E+00    3.1710896416212453E+00    5.5828033385594198E+00
Cd    6.9365348926575257E+00   -7.0587396537965685E-01   -6.1237194352478523E+00
Cd    4.2498994488196429E+00    2.9740771393972349E+00   -5.5832596679001121E+00
Cd    1.9075719665379316E+00    7.0126194605672207E+00   -5.4830431880327755E+00
Cd    6.9871611176242956E+00   -3.1914253350334230E+00   -2.9227569780859901E+00
Cd   -2.2909853708357711E-01    7.8931453122202528E+00   -2.1777965487976383E+00
Cd    6.8537793032003931E+00   -6.0240802336668873E+00    3.9152764945961910E-01
Cd   -2.3695110470514869E+00    8.6672966240229510E+00    1.2855130502310377E+00
Cd    4.1604321566149869E+00   -4.9783902033198695E+00    3.8986135610390251E+00
Cd   -2.4799353104714785E+00    5.6798434741825492E+00    4.7257078256412965E+00
Cd    1.9524039183017834E+00   -4.2145376390775890E+00    7.7814532589666259E+00
Cd   -2.2357426716440507E-01   -7.0744157546164577E-01    8.0761761858060233E+00
Cd   -2.5522376833099383E+00    2.8961596117100834E+00    8.1631711896569534E+00
Cd    8.1733697088870585E+00    2.6087727528475684E+00   -3.2945533619503840E+00
Cd    5.5708063750662564E+00    6.4871109413010482E+00   -2.8170948555985111E+00
Cd    8.2368288771763609E+00   -2.6607133996666965E-01    6.7687165188696871E-02
Cd    5.9295845613644609E+00    3.6892335085085088E+00    1.9257530291644423E-01
Cd    3.0621397745382506E+00    7.4704106230200429E+00    8.0962879503823970E-01
Cd    8.1797571152422091E+00   -2.7952040185337430E+00    3.2325189066490174E+00
Cd    5.9341406024580206E+00    9.0822045144180708E-01    3.5791481647931649E+00
Cd    3.7213740538721107E+00    4.6625815701729900E+00    3.8542547911130196E+00
Cd    8.5050887107662176E-01    8.1736660264469823E+00    4.3926490062964021E+00
Cd    5.5229179067543743E+00   -1.5332409998702059E+00    6.8297055760986209E+00
Cd    3.2050361525404583E+00    1.9687918814418783E+00    7.1333599714528084E+00
Cd    1.0116661959674822E+00    5.6200973445490270E+00    7.2003359035974830E+00
Se   -2.4591688732581263E+00   -6.6038260019759134E+00   -5.5868521230456087E+00
Se   -4.8184928076783455E+00   -2.8075637102469875E+00   -5.3817594083529112E+00
Se   -7.2941744590994091E+00    6.6698793638609655E-01   -5.0178822095823596E+00
Se   -4.8323765199180064E+00   -5.7200937137569783E+00   -1.8684056308170043E+00
Se   -7.2854979412696119E+00   -1.9249608496000024E+00   -1.6193533084256659E+00
Se   -7.3328526611299818E+00   -4.8274339053282027E+00    1.6057354552620564E+00
Se    1.1836570191836919E+00   -4.0550982939835318E+00   -6.4599099458500229E+00
Se   -1.2191895793154697E+00   -4.2786796621051210E-01   -6.2681153578154740E+00
Se   -3.5150256934781710E+00    3.2089000441898143E+00   -5.9977650744080497E+00
Se    1.1395793075018843E+00   -7.0653164520886094E+00   -2.8640784310350651E+00
Se   -5.9991877386220462E+00    4.1930207468725609E+00   -2.2426281269307702E+00
Se   -1.2618759026338844E+00   -6.2043820222737898E+00    5.9790411085075401E-01
Se   -6.0454938223778782E+00    1.3694080335726442E+00    1.0692207163871394E+00
Se   -3.5152858241613463E+00   -5.3301115694521970E+00    4.1252422439563601E+00
Se   -6.0450413017368705E+00   -1.3624502717081208E+00    4.3811199324133954E+00
Se    4.9171401828010621E+00   -1.6401831111316527E+00   -7.3476568400024069E+00
Se    2.3997296094098024E+00    1.8799589757113786E+00   -7.1528975414437124E+00
Se    3.0214691742246408E-01    5.6385793923136669E+00   -6.9036624096153423E+00
Se    4.9068364295358231E+00   -4.4899456429494391E+00   -3.7739292739173718E+00
Se   -2.1934686289363272E+00    6.6015894753618776E+00   -3.2441297522900023E+00
Se    4.8677242992592156E+00   -7.4871099714000708E+00   -2.0094272066424565E-01
Se   -4.5768298247525694E+00    7.5488648517100465E+00    6.0454266720522642E-01
Se    2.3019921641167111E+00   -6.7220913147793704E+00    3.1134130976515655E+00
Se   -4.7998938040083310E+00    4.5829533410581922E+00    3.8390533892873915E+00
Se    2.5998429823606933E-01   -5.8009028143124777E+00    6.7229946235638627E+00
Se   -2.2461833428608848E+00   -1.9137522072108710E+00    7.0098858722194386E+00
Se   -4.7433345458507938E+00    1.9807858866103365E+00    7.2285169238254863E+00
Se    6.1776436447815746E+00    1.3957803277229219E+00   -4.6031514456483604E+00
Se    3.7113367856690846E+00    5.2911294073315975E+00   -4.3605885851065649E+00
Se    6.1380390527620161E+00   -1.3826079514034069E+00   -1.1472477692544401E+00
Se    1.2536978716316798E+00    6.1892783894282637E+00   -7.3142922053992754E-01
Se    6.1147719044872728E+00   -4.2226184648323963E+00    2.2382812653834026E+00
Se   -1.0543258082176694E+00    7.0459704368864626E+00    2.9028160020040392E+00
Se    3.6554871134867377E+00   -3.2871661677341835E+00    5.9200708965348641E+00
Se    1.2896653897600385E+00    3.9650109149429258E-01    6.1499633868956813E+00
Se   -1.0750730356688289E+00    4.1031601373663600E+00    6.3733900996320640E+00
Se    7.2695020945597033E+00    4.6997658128703614E+00   -2.1268835826844912E+00
Se    7.2854687683956820E+00    1.7287283288324673E+00    1.4270289266652543E+00
Se    4.7800008618783245E+00    5.6655713756476134E+00    1.5740602895314095E+00
Se    7.2743362407898573E+00   -1.1937067911178327E+00    5.0025138704000884E+00
Se    4.8254245310502730E+00    2.6363917246780133E+00    5.2269723818424554E+00
Se    2.5990587053371219E+00    6.5706653668557076E+00    5.4086366700984154E+00
C331   -1.6982220585093546E+00    8.2349488669676330E+00    8.2696889667669709E+00
C2O3   -1.5952071840885271E+00    7.6632931838988814E+00    6.8866111867569915E+00
O2D2   -2.6712106128660378E+00    7.3552679053252197E+00    6.3127056133750434E+00
O2D2   -4.2635693232686722E-01    7.5364374728429375E+00    6.4394566984624309E+00
HGA3   -1.1893905424373434E+00    9.2196860381390238E+00    8.2809404621279210E+00
HGA3   -1.1993380682637564E+00    7.5533610927972621E+00    8.9882275177969735E+00
HGA3   -2.7623213691084798E+00    8.3678560171083785E+00    8.5561854850088164E+00
C331    1.7874640211302815E+00    1.0975227177709998E+01   -3.9949018845324984E+00
C2O3    1.7799441524028607E+00    9.5518495110862158E+00   -4.4714804657041034E+00
O2D2    2.2887844389578147E+00    9.3135725176769188E+00   -5.5940238752784666E+00
O2D2    1.2743978400491565E+00    8.6894978620985110E+00   -3.7086345064049784E+00
HGA3    1.4239129770561443E+00    1.1029723717535717E+01   -2.9475571911882987E+00
HGA3    1.1314166225078257E+00    1.1580391579619400E+01   -4.6519414133639012E+00
HGA3    2.8226254856042496E+00    1.1368244421171200E+01   -4.0453839284333988E+00
C331   -5.1867478218590231E+00    1.4075253656121059E-01   -1.0831000054489609E+01
C2O3   -5.2744222378064709E+00   -1.8998892414608970E-01   -9.3703120667087596E+00
O2D2   -6.2162627472597372E+00   -9.4010390529473808E-01   -9.0171654396777612E+00
O2D2   -4.4080535916592352E+00    3.0687367724081493E-01   -8.6056372197730315E+00
HGA3   -4.3522109645033265E+00    8.4794995944824236E-01   -1.1011310632725102E+01
HGA3   -6.1415237654514296E+00    6.0721006187814452E-01   -1.1147680015552814E+01
HGA3   -5.0208140507314196E+00   -7.9351615796089336E-01   -1.1404971389370633E+01
C331    1.3084249763914992E+00   -2.2857036489512579E+00    1.1448994089854986E+01
C2O3    1.6195289841572849E+00   -2.8413831397246021E+00    1.0094360294737346E+01
O2D2    2.4081288142450705E+00   -3.8154619172773510E+00    1.0036305495848435E+01
O2D2    1.0581174174494479E+00   -2.3075373641216257E+00    9.1040815703922018E+00
HGA3    8.3414465676771676E-01   -3.0811522643660108E+00    1.2057344323102898E+01
HGA3    6.1544834116273761E-01   -1.4249882183098399E+00    1.1356590309927212E+01
HGA3    2.2488835399733067E+00   -1.9572505446216188E+00    1.1933945861968498E+01
C331   -7.6958711850366655E+00   -7.5691993426352120E+00   -4.7394695805240348E+00
C2O3   -6.9348892757968885E+00   -6.2758481566895279E+00   -4.7347032955513910E+00
O2D2   -7.5125556087882144E+00   -5.2820179899392068E+00   -4.2266987408983097E+00
O2D2   -5.7755559429077161E+00   -6.3156060331532098E+00   -5.2248676388507853E+00
HGA3   -7.1491085235697378E+00   -8.3178136890136720E+00   -4.1303482044538056E+00
HGA3   -7.7856143159070488E+00   -7.9263983394581237E+00   -5.7857884860770028E+00
HGA3   -8.7112211192288935E+00   -7.4150903518758122E+00   -4.3170144775531734E+00
C331    1.1699798685546574E+01   -2.5878501652700794E+00    1.0509955361881576E+00
C2O3    1.0328314012078410E+01   -2.7327374998519316E+00    1.6378266938377923E+00
O2D2    1.0143085937685999E+01   -3.7154655994524268E+00    2.3983160058673647E+00
O2D2    9.4636400335500248E+00   -1.8609193436519984E+00    1.3568914444272673E+00
HGA3    1.2436257203504301E+01   -2.5025141074990982E+00    1.8748940272588419E+00
HGA3    1.1747019460476233E+01   -1.6830734936757039E+00    4.1175623914245685E-01
HGA3    1.1929025582798239E+01   -3.4835607119223484E+00    4.4197656021225740E-01
C331   -1.0632724904130015E+01    2.7799505087343319E+00    4.4718650545787870E+00
C2O3   -9.2734528612602976E+00    2.3397228523310498E+00    4.0093046742674563E+00
O2D2   -9.1896783127090114E+00    1.9084615750824034E+00    2.8356745914015393E+00
O2D2   -8.3281712098175209E+00    2.4298487526834216E+00    4.8319985623409849E+00
HGA3   -1.0588225407350453E+01    3.8516208527911426E+00    4.7529182860841521E+00
HGA3   -1.0930667138006902E+01    2.1739932278455911E+00    5.3507009993639789E+00
HGA3   -1.1374694339619325E+01    2.6420418403427499E+00    3.6573113184096657E+00
C331    1.7735009280078056E+00    1.1422091283293051E+01    1.7540280970577218E+00
C2O3    1.5428448273035593E+00    1.0196647505789196E+01    2.5881959330856277E+00
O2D2    9.2944840851152899E-01    1.0363593639729610E+01    3.6695395627900278E+00
O2D2    1.9626081329509066E+00    9.0964345731351681E+00    2.1459893485307351E+00
HGA3    2.2864763805458628E+00    1.1149939959528279E+01    8.0813293157085064E-01
HGA3    2.3953082010526514E+00    1.2139512023206333E+01    2.3253455992772381E+00
HGA3    7.9344130885262798E-01    1.1889948633497967E+01    1.5284310138403836E+00
C331   -1.7242128204066089E+00   -1.1149843890926029E+01    3.8307593252300696E+00
C2O3   -1.0459635448287090E+00   -9.8301570371584202E+00    4.0638771990543514E+00
O2D2   -3.6216709142614788E-02   -9.8393319935884644E+00    4.8083828030335942E+00
O2D2   -1.5269738325242463E+00   -8.8185694001193600E+00    3.4922260741854383E+00
HGA3   -2.5655774495817005E+00   -1.1025513784687044E+01    3.1194327516301912E+00
HGA3   -2.1060346600832691E+00   -1.1539390278208867E+01    4.7964675791005078E+00
HGA3   -9.8896763793712006E-01   -1.1868447142669304E+01    3.4137200419035358E+00
C331    2.6545817916494854E+00    3.6532064658478842E+00    1.0501653524105894E+01
C2O3    1.9096926242422676E+00    4.2211110332877340E+00    9.3334740639470262E+00
O2D2    1.1020024740172756E+00    5.1630756971998402E+00    9.5287733825558298E+00
O2D2    2.1650630394517241E+00    3.7072878099731845E+00    8.2165658690548327E+00
HGA3    3.7399900933897419E+00    3.8197976158977851E+00    1.0343435250650217E+01
HGA3    2.4603244148931687E+00    2.5625887047318723E+00    1.0563687590601303E+01
HGA3    2.3312661408323532E+00    4.1474865317514853E+00    1.1440210912921597E+01
C331   -1.1364431876014900E+00    1.2021351948808265E+01   -1.1354528540546294E+00
C2O3   -1.2364783347976507E+00    1.0736476280340465E+01   -3.6146812345427670E-01
O2D2   -8.5712647553307397E-01    9.6823782347771097E+00   -9.2923128443084813E-01
O2D2   -1.7134263808540202E+00    1.0816156788459653E+01    7.9646233325307048E-01
HGA3   -4.7508701903046996E-01    1.2727280716190560E+01   -5.9226434809759354E-01
HGA3   -2.1495498038981498E+00    1.2463444900306916E+01   -1.2337536429016083E+00
HGA3   -7.2348259727523778E-01    1.1823423392713631E+01   -2.1455607474257348E+00
C331   -3.3555731311723198E+00   -3.6782843387002147E+00   -1.1013903536840749E+01
C2O3   -3.1171345237994244E+00   -3.5476475691753855E+00   -9.5349382870742154E+00
O2D2   -2.1197408527678236E+00   -2.8774120487659918E+00   -9.1637863587439927E+00
O2D2   -3.9534645791954581E+00   -4.1317289091111924E+00   -8.8020845042092457E+00
HGA3   -4.3589453229850061E+00   -3.2739569644307189E+00   -1.1258890040253098E+01
HGA3   -3.3187588856957406E+00   -4.7527247970121298E+00   -1.1283832186161330E+01
HGA3   -2.5809160333577341E+00   -3.1252282189433886E+00   -1.1581962878398201E+01
C331   -5.5336962810877894E+00   -1.0534770800507181E+01    1.7289135658973456E+00
C2O3   -5.4843228318208403E+00   -9.1594813023354167E+00    1.1307067677489777E+00
O2D2   -6.3635919032598380E+00   -8.8919170220893449E+00    2.7553679701432421E-01
O2D2   -4.5882200962271673E+00   -8.3747295719992749E+00    1.5331476394708781E+00
HGA3   -6.5337901720776372E+00   -1.0689282395326774E+01    2.1820578384892917E+00
HGA3   -4.7551406796028930E+00   -1.0639924268701261E+01    2.5101503935396279E+00
HGA3   -5.3718589201685658E+00   -1.1288170627120914E+01    9.3194274613876493E-01
C331   -1.1577376255056578E+01   -5.7749582997543825E-01    2.3557799921743605E+00
C2O3   -1.0416013061508094E+01   -1.2229113347406115E+00    1.6624778457211751E+00
O2D2   -1.0678437830670521E+01   -1.9485684932724920E+00    6.7180772239870690E-01
O2D2   -9.2618829799994895E+00   -1.0113971295361130E+00    2.1186557888412474E+00
HGA3   -1.1218329547054967E+01    1.1978901095205054E-02    3.2234956462182525E+00
HGA3   -1.2275201259563502E+01   -1.3658760035318256E+00    2.7011657070760116E+00
HGA3   -1.2096563899628979E+01    9.1306958914526420E-02    1.6422625114460889E+00
C331    4.7733224418223603E+00    9.6904860875778542E-02    1.0914712704684085E+01
C2O3    4.6045098336221901E+00    7.7184431174176518E-02    9.4218810223842624E+00
O2D2    4.4415812147511238E+00    1.1821617330198904E+00    8.8532477059759032E+00
O2D2    4.6451824588474198E+00   -1.0505334113566507E+00    8.8685380815987518E+00
HGA3    5.7450141068737599E+00   -3.6664651199367032E-01    1.1178839925717684E+01
HGA3    3.9509319963140772E+00   -4.8429246231899492E-01    1.1375099981013367E+01
HGA3    4.7446002798681457E+00    1.1394811164198588E+00    1.1292878647312413E+01
C331    1.0638390638741511E+01   -5.5851020788313610E+00   -1.6892284474150192E+00
C2O3    9.2636617915918134E+00   -4.9847087544754771E+00   -1.6335925437233183E+00
O2D2    8.8273213472301979E+00   -4.4609384843498860E+00   -2.6848786845213186E+00
O2D2    8.6650374463265454E+00   -5.0733791891000157E+00   -5.3362428698564168E-01
HGA3    1.0563967148398214E+01   -6.6749712446623324E+00   -1.5017653639535127E+00
HGA3    1.1271330477465856E+01   -5.1183287770928780E+00   -9.0962289201908564E-01
HGA3    1.1088963304555939E+01   -5.4089639913503227E+00   -2.6876633886667278E+00
C331    2.0488145136381586E-01   -1.1692749886840019E+01    4.8613696777831278E-01
C2O3    1.1143802150857542E+00   -1.0530822928472423E+01    7.5279266749983254E-01
O2D2    2.1821895302383032E+00   -1.0732910325550360E+01    1.3786940368434690E+00
O2D2    7.2874606052346846E-01   -9.4160616260212997E+00    3.2185161004001195E-01
HGA3    1.0263769724648755E-01   -1.1821084437315745E+01   -6.1057822414988716E-01
HGA3   -7.9200084686318484E-01   -1.1482867227712848E+01    9.2435656733997540E-01
HGA3    6.2171884794930521E-01   -1.2620221363120013E+01    9.3272387957212466E-01
C331    1.0571423197558648E+01   -2.3003830448042342E+00   -4.9139538237843583E+00
C2O3    9.2622434856809388E+00   -1.6187005411116309E+00   -5.1730950962248716E+00
O2D2    9.2514173182086559E+00   -7.0906248168017838E-01   -6.0395995072557653E+00
O2D2    8.2570023981018359E+00   -2.0028043274688336E+00   -4.5207954471031320E+00
HGA3    1.0882134684363617E+01   -2.8475638122238269E+00   -5.8257079113905652E+00
HGA3    1.0465261045296348E+01   -3.0132003307747675E+00   -4.0699122143323887E+00
HGA3    1.1335575955685247E+01   -1.5410870799723135E+00   -4.6587356724814635E+00
C331    4.8849332123998872E+00    1.0787469517905347E+01   -1.5497729783949423E+00
C2O3    4.3771871972829830E+00    9.3741381163112774E+00   -1.5465600339841585E+00
O2D2    3.4756374524351914E+00    9.0980087589144993E+00   -7.2089167635068441E-01
O2D2    4.9110819786366333E+00    8.5956625971330762E+00   -2.3756514579249557E+00
HGA3    4.7514169704745219E+00    1.1221473922851468E+01   -2.5608959883979150E+00
HGA3    5.9627529213636770E+00    1.0775464753147265E+01   -1.2920432248300628E+00
HGA3    4.3325121118236964E+00    1.1399249933981361E+01   -8.0694739702798413E-01
C331   -1.1753924485605941E+01    2.2605119331797625E+00   -8.3519282948843943E-01
C2O3   -1.0259825041673169E+01    2.1581183104228661E+00   -9.1850985252862238E-01
O2D2   -9.6018862213676446E+00    3.1573857527421167E+00   -5.4634985503830369E-01
O2D2   -9.8045115554496576E+00    1.0761428855480417E+00   -1.3657741227228100E+00
HGA3   -1.2135756986663953E+01    1.4233905114310739E+00   -2.1864555285414733E-01
HGA3   -1.2170233988914459E+01    2.1906833218970814E+00   -1.8597484984404842E+00
HGA3   -1.2045420749126478E+01    3.2276981958944901E+00   -3.7608802189004420E-01
C331   -3.1921501544485440E+00   -1.1539511134630988E+01   -2.0155321515687947E+00
C2O3   -3.1623507983660719E+00   -1.0048173630657967E+01   -2.1897123968756893E+00
O2D2   -2.2502732636661129E+00   -9.4154375894456290E+00   -1.5991689296086695E+00
O2D2   -4.0628301014033807E+00   -9.5654593099124590E+00   -2.9209515723574850E+00
HGA3   -3.0658412966238218E+00   -1.2007953879063288E+01   -3.0120889899380239E+00
HGA3   -4.1712108627699367E+00   -1.1838396435523663E+01   -1.5887673001972562E+00
HGA3   -2.3740236714299390E+00   -1.1868964068162571E+01   -1.3438873441222492E+00
C331   -1.4753801128314639E+00    2.2477559735737929E+00   -1.1743901304619147E+01
C2O3   -8.0624821533072266E-01    2.6064724158782702E+00   -1.0451331789900902E+01
O2D2    1.3929108522957909E-01    3.4289037954559345E+00   -1.0529163728320903E+01
O2D2   -1.2280077287411357E+00    2.0660641424567383E+00   -9.3960172463407332E+00
HGA3   -1.9859000136212377E+00    3.1490094676323914E+00   -1.2137885705149481E+01
HGA3   -2.2137548842261143E+00    1.4368004236130303E+00   -1.1585921518703840E+01
HGA3   -7.0362013982673843E-01    1.9159702969672376E+00   -1.2468546763226916E+01
C331    3.8040670961823159E-01   -1.2423826554305115E+00   -1.1604633673679634E+01
C2O3    1.2456814881713718E+00   -8.7042948098073669E-01   -1.0442926644530150E+01
O2D2    2.2592012895840980E+00   -1.6654969648933260E-01   -1.0670798454691019E+01
O2D2    8.9975030021124547E-01   -1.2897399053810523E+00   -9.3103984786358076E+00
HGA3   -5.0942851508021725E-01   -1.8034834103359643E+00   -1.1252727821973920E+01
HGA3    9.6965134086205496E-01   -1.8731250997441096E+00   -1.2300569517403940E+01
HGA3    5.6666793452301384E-02   -3.1922774909522822E-01   -1.2124517793343561E+01
C331    1.1818140091312303E+01    1.8290706583783850E-01   -2.2497180538386541E+00
C2O3    1.0327873501191966E+01    1.5041685823898679E-01   -2.0727199050010698E+00
O2D2    9.8400626742861395E+00   -8.3962148087066413E-01   -1.4779436305230260E+00
O2D2    9.6941543811600557E+00    1.1356344163078327E+00   -2.5253535174678392E+00
HGA3    1.2215823311567242E+01    1.0796784293216686E+00   -1.7329112878111321E+00
HGA3    1.2050758947206749E+01    2.4012650456362611E-01   -3.3322939240215774E+00
HGA3    1.2279854437146112E+01   -7.2932524295448664E-01   -1.8177280942163807E+00
C331   -1.9118160298490511E-01    1.5204705450681892E+00    1.1737598677287323E+01
C2O3   -3.0176476599123636E-01    1.3215243576229749E+00    1.0253940782370975E+01
O2D2    6.2218573824011336E-01    6.8031650994544801E-01    9.6993059635655197E+00
O2D2   -1.3155821480506458E+00    1.8038678325531152E+00    9.6942504527011284E+00
HGA3   -1.0832977231483976E+00    1.0742128549751762E+00    1.2220588035248662E+01
HGA3   -1.4618015843155480E-01    2.6052487567986673E+00    1.1965208513619306E+01
HGA3    7.2534671811933904E-01    1.0236916832651188E+00    1.2118801565778973E+01
C331   -1.0017131779239541E+01    5.3381802242282932E+00    1.8106017107782926E+00
C2O3   -8.5645433931537003E+00    5.4880800063813684E+00    2.1199537207722043E+00
O2D2   -8.2366272827095806E+00    6.1598053086959990E+00    3.1284207007934191E+00
O2D2   -7.7578481592898560E+00    4.9391553232472356E+00    1.3287222560441387E+00
HGA3   -1.0265912111666022E+01    4.2574196811618350E+00    1.7970616690046002E+00
HGA3   -1.0210561318029946E+01    5.7685770090503015E+00    8.0732080287610686E-01
HGA3   -1.0632756988332350E+01    5.8576901145694809E+00    2.5726801968305186E+00
     &END COORD
     &KIND C2O3
       ELEMENT C
     &END KIND
     &KIND C331
       ELEMENT C
     &END KIND
     &KIND CD
       ELEMENT Cd
     &END KIND
     &KIND HGA3
       ELEMENT H
     &END KIND
     &KIND O2D2
       ELEMENT O
     &END KIND
     &KIND SE
       ELEMENT Se
     &END KIND
     &TOPOLOGY
       COORD_FILE_FORMAT  OFF
       NUMBER_OF_ATOMS  305
       CONN_FILE_NAME /Users/bvanbeek/Documents/GitHub/qmflows/test/test_files/Cd68Cl26Se55__26_acetate.psf
       CONN_FILE_FORMAT  PSF
       MULTIPLE_UNIT_CELL  1 1 1
       &CENTER_COORDINATES  T
         CENTER_POINT     0.0000000000000000E+00    0.0000000000000000E+00    0.0000000000000000E+00
       &END CENTER_COORDINATES
     &END TOPOLOGY
   &END SUBSYS
 &END FORCE_EVAL
