 # Version information for this restart file 
 # current date 2020-03-19 17:55:09.545
 # current working dir /Users/bvanbeek/Documents/GitHub/qmflows/test/test_files/plams_workdir.006/cp2k_mm_opt
 # Program compiled at                             Fri Apr 19 11:24:34 CEST 2019
 # Program compiled on                                             192.168.1.124
 # Program compiled for                           Darwin-IntelMacintosh-gfortran
 # Source code revision number                                         svn:18464
 &GLOBAL
   PRINT_LEVEL  LOW
   PROJECT_NAME cp2k
   RUN_TYPE  GEO_OPT
 &END GLOBAL
 &MOTION
   &GEO_OPT
     TYPE  MINIMIZATION
     OPTIMIZER  LBFGS
     MAX_ITER  500
     STEP_START_VAL  498
   &END GEO_OPT
 &END MOTION
 &FORCE_EVAL
   METHOD  FIST
   &MM
     &FORCEFIELD
       PARMTYPE  CHM
       PARM_FILE_NAME /Users/bvanbeek/Documents/GitHub/qmflows/test/test_files/Cd68Cl26Se55__26_acetate.prm
       VDW_SCALE14     1.0000000000000000E+00
       EI_SCALE14     1.0000000000000000E+00
       SHIFT_CUTOFF  T
       DO_NONBONDED  T
       IGNORE_MISSING_CRITICAL_PARAMS  T
       &SPLINE
         R0_NB     2.5000000000000000E-01
       &END SPLINE
       &NONBONDED
         &LENNARD-JONES
           ATOMS Cd C2O3
           EPSILON     7.7847969578400509E+01
           SIGMA     2.9841000000000002E+00
         &END LENNARD-JONES
         &LENNARD-JONES
           ATOMS Cd C331
           EPSILON     7.7847969578400509E+01
           SIGMA     2.9841000000000002E+00
         &END LENNARD-JONES
         &LENNARD-JONES
           ATOMS Cd Cd
           EPSILON     3.7288523243435542E+01
           SIGMA     1.2340000000000000E+00
         &END LENNARD-JONES
         &LENNARD-JONES
           ATOMS Cd HGA3
           EPSILON     5.0422537503269112E+01
           SIGMA     2.5541999999999998E+00
         &END LENNARD-JONES
         &LENNARD-JONES
           ATOMS Cd O2D2
           EPSILON     2.2056086015651550E+02
           SIGMA     2.4710000000000001E+00
         &END LENNARD-JONES
         &LENNARD-JONES
           ATOMS Cd Se
           EPSILON     1.8312137123193244E+02
           SIGMA     2.9399999999999999E+00
         &END LENNARD-JONES
         &LENNARD-JONES
           ATOMS Se C2O3
           EPSILON     8.7962670215283850E+01
           SIGMA     3.5884999999999998E+00
         &END LENNARD-JONES
         &LENNARD-JONES
           ATOMS Se C331
           EPSILON     8.7962670215283850E+01
           SIGMA     3.5884999999999998E+00
         &END LENNARD-JONES
         &LENNARD-JONES
           ATOMS Se HGA3
           EPSILON     5.6964383686327977E+01
           SIGMA     3.1587000000000001E+00
         &END LENNARD-JONES
         &LENNARD-JONES
           ATOMS Se O2D2
           EPSILON     1.9404122216826917E+02
           SIGMA     3.5259999999999998E+00
         &END LENNARD-JONES
         &LENNARD-JONES
           ATOMS Se Se
           EPSILON     5.1328331590154185E+01
           SIGMA     4.8520000000000003E+00
         &END LENNARD-JONES
       &END NONBONDED
       &CHARGE
         ATOM C2O3
         CHARGE     4.5240000000000002E-01
       &END CHARGE
       &CHARGE
         ATOM Cd
         CHARGE     9.7680000000000000E-01
       &END CHARGE
       &CHARGE
         ATOM O2D2
         CHARGE    -4.7039999999999998E-01
       &END CHARGE
       &CHARGE
         ATOM Se
         CHARGE    -9.7680000000000000E-01
       &END CHARGE
     &END FORCEFIELD
     &POISSON
       PERIODIC  NONE
       &EWALD
         EWALD_TYPE  NONE
       &END EWALD
     &END POISSON
     &PRINT
       &FF_INFO  LOW
         SPLINE_INFO  F
         SPLINE_DATA  F
       &END FF_INFO
     &END PRINT
   &END MM
   &SUBSYS
     &CELL
       A     5.0000000000000007E+01    0.0000000000000000E+00    0.0000000000000000E+00
       B     0.0000000000000000E+00    5.0000000000000007E+01    0.0000000000000000E+00
       C     0.0000000000000000E+00    0.0000000000000000E+00    5.0000000000000007E+01
       PERIODIC  NONE
       MULTIPLE_UNIT_CELL  1 1 1
     &END CELL
     &COORD
Cd   -2.6844674412237506E+00   -1.5260234418591154E+00   -4.2250456784141930E+00
Cd   -2.6839095215917079E+00   -4.3687867314900810E+00   -8.3178773972416453E-01
Cd   -5.0825787397100397E+00   -6.1879439757840993E-01   -5.6605551979688407E-01
Cd    8.4764126350275082E-01    7.8648466622873825E-01   -5.0584043030636359E+00
Cd    9.5228275549952102E-01   -2.0283522291477092E+00   -1.7659499763045670E+00
Cd   -1.5378903147753826E+00    1.8397688795693989E+00   -1.5043170703521900E+00
Cd    7.9731673815703574E-01   -4.8481060735350168E+00    1.6337078715978242E+00
Cd   -1.5426756685666159E+00   -1.1058101556377751E+00    1.9807040577637491E+00
Cd   -3.8467909066150003E+00    2.6036881717304849E+00    2.1421034510870269E+00
Cd    4.5890280474702152E+00    3.0955655154000278E-01   -2.5620526955627057E+00
Cd    2.1073394148181372E+00    4.1590430733531907E+00   -2.2800340144739257E+00
Cd    4.5735973923917861E+00   -2.4147169101495023E+00    7.7162117680181497E-01
Cd    2.2314491392554796E+00    1.2850824095797069E+00    1.0961970227555589E+00
Cd   -1.8169141775298811E-01    4.9952107308158968E+00    1.2743212607036503E+00
Cd    2.1199676920010151E+00   -1.4859088569853347E+00    4.4318699590171642E+00
Cd   -1.8411227951373818E-01    2.1692991707438960E+00    4.6617428394794915E+00
Se   -1.2330712486596698E+00   -3.2731412697424989E+00   -2.8036833644005030E+00
Se   -3.5957578203702640E+00    4.1033210404381615E-01   -2.5755301420135233E+00
Se   -3.6228585373212354E+00   -2.4037093775412508E+00    8.1022051337838619E-01
Se    2.4576540597733469E+00   -8.4783139636727511E-01   -3.7038653771144903E+00
Se    9.7594669111285171E-02    2.8307027431072047E+00   -3.4757090769170076E+00
Se    2.4421950745220511E+00   -3.7627398178531486E+00   -2.0280728246542179E-01
Se    4.7418808731180068E-02   -2.4398191463703613E-02   -4.9448738704283242E-02
Se   -2.3411460472292527E+00    3.7309724796149486E+00    2.5028654921198235E-01
Se    6.9528378127750243E-02   -2.8809389833660766E+00    3.3431775019117214E+00
Se   -2.3524388213500131E+00    9.1841926367323334E-01    3.6086422460096794E+00
Se    3.6783820639135931E+00    2.3438299191529164E+00   -1.0497654408898431E+00
Se    3.6737014820865466E+00   -5.5515238476094919E-01    2.4622562771823508E+00
Se    1.2845602743490618E+00    3.2380025280981291E+00    2.6923057052585309E+00
Cd   -4.1449464625609114E+00   -5.0115105766824328E+00   -6.7176669459379674E+00
Cd   -6.0022187721197868E+00   -8.0733164516133138E-01   -6.7247482136302352E+00
Cd   -4.0323129637863699E+00   -7.4542859322655834E+00   -3.7415495060694020E+00
Cd   -6.0979106736691060E+00   -3.7598815420814407E+00   -3.2306089878090991E+00
Cd   -8.6099926304855838E+00   -3.7812863894299428E-02   -2.9348020791966629E+00
Cd   -6.1519900238519520E+00   -6.6254365724279936E+00    2.3102164527590036E-01
Cd   -8.5436635453489167E+00   -2.8382325693348092E+00    5.7302272513873853E-01
Cd   -3.5580980653408456E-01   -2.4724284391874001E+00   -7.7989034496282104E+00
Cd   -2.6364917739520148E+00    1.3988991456957443E+00   -7.6386185288526871E+00
Cd   -1.5338452031373506E-01   -5.5142221800149409E+00   -4.6569613531449461E+00
Cd   -5.3040362453787768E+00    2.4567883817891816E+00   -4.1287329277862908E+00
Cd   -4.5258163324419542E-01   -8.0901658356829991E+00   -1.1185689646223218E+00
Cd   -7.3789680169523919E+00    3.2877096540593413E+00   -2.3792747982737525E-01
Cd   -2.8451491441887464E+00   -7.2263606452448190E+00    2.5079088021933695E+00
Cd   -5.2978645385379330E+00   -3.5897346359343603E+00    3.1134037453639429E+00
Cd   -7.5349700509994673E+00    2.7702614291316752E-01    2.9935958303759191E+00
Cd    3.0628278262135611E+00   -3.5210852022158434E-01   -8.5030481614271221E+00
Cd    7.0857456389849183E-01    3.5805206678243766E+00   -8.3357667244566578E+00
Cd    3.4339488190399896E+00   -3.0554703082946268E+00   -5.4702027325002796E+00
Cd   -1.5514126314971599E+00    4.6671046535220437E+00   -4.9630549086960949E+00
Cd    3.3831901875283092E+00   -5.8417782536484690E+00   -2.0316610288825223E+00
Cd   -3.9988821862028594E+00    5.7765489207470440E+00   -1.4523771342763676E+00
Cd    2.9649294161230655E+00   -8.5573953028082492E+00    1.1675980383034334E+00
Cd   -6.0460510109481111E+00    6.3378520245223857E+00    2.2891647970372149E+00
Cd    4.6357785677704905E-01   -7.6060573628164905E+00    4.9313773110340424E+00
Cd   -1.5781417275576062E+00   -3.9908518136949311E+00    5.4341500811868810E+00
Cd   -3.9993951826200576E+00   -3.4799498652553512E-01    5.7497188389472029E+00
Cd   -6.2997681773686889E+00    3.1708362547698363E+00    5.5827616938717490E+00
Cd    6.9365735486629863E+00   -7.0624660881951706E-01   -6.1236250874200913E+00
Cd    4.2502776493432401E+00    2.9741006643423473E+00   -5.5830239389255043E+00
Cd    1.9072397487409380E+00    7.0124628529904527E+00   -5.4827679077453020E+00
Cd    6.9871830114448956E+00   -3.1913557067262670E+00   -2.9225991825077644E+00
Cd   -2.2873115423334653E-01    7.8931431697505090E+00   -2.1774098840176728E+00
Cd    6.8539861717702557E+00   -6.0241274284233466E+00    3.9113677008813597E-01
Cd   -2.3696550876378981E+00    8.6676489358958726E+00    1.2857814693513983E+00
Cd    4.1608499426714145E+00   -4.9792548878686231E+00    3.8988849813837558E+00
Cd   -2.4799197606125847E+00    5.6797442337273347E+00    4.7256201540646652E+00
Cd    1.9522736078614915E+00   -4.2145892857864151E+00    7.7812742854544190E+00
Cd   -2.2354593214664265E-01   -7.0751726173418417E-01    8.0760579138133401E+00
Cd   -2.5519906052066066E+00    2.8958820602181627E+00    8.1627732819532692E+00
Cd    8.1734833600448429E+00    2.6085230590734327E+00   -3.2943160765361301E+00
Cd    5.5708455411431377E+00    6.4872398843587460E+00   -2.8171019930261747E+00
Cd    8.2366995425079068E+00   -2.6577533952342608E-01    6.7624638949487975E-02
Cd    5.9295546266693462E+00    3.6893581598679073E+00    1.9241081192827567E-01
Cd    3.0621427639461722E+00    7.4701487657452539E+00    8.0978794551073618E-01
Cd    8.1796610891778254E+00   -2.7948146616789384E+00    3.2320113997578437E+00
Cd    5.9341893625656201E+00    9.0827118787631711E-01    3.5790776111803946E+00
Cd    3.7215090279787408E+00    4.6625786633353261E+00    3.8545313827662273E+00
Cd    8.5019754666407965E-01    8.1738635353164657E+00    4.3928628613129828E+00
Cd    5.5229895688512265E+00   -1.5333838180395127E+00    6.8298982162927597E+00
Cd    3.2049681840407453E+00    1.9690255246882931E+00    7.1332934746349457E+00
Cd    1.0115150079057835E+00    5.6203069829771772E+00    7.2002845473217816E+00
Se   -2.4596356576114071E+00   -6.6035516080073293E+00   -5.5867306517619779E+00
Se   -4.8185143818930172E+00   -2.8073927608058988E+00   -5.3818389747798854E+00
Se   -7.2939240083340957E+00    6.6722985358547104E-01   -5.0179047421382164E+00
Se   -4.8323630860516280E+00   -5.7199288013450662E+00   -1.8685420836289759E+00
Se   -7.2855567606529092E+00   -1.9242966231906573E+00   -1.6192892146314528E+00
Se   -7.3328772516929410E+00   -4.8275615872313358E+00    1.6058540109701200E+00
Se    1.1839263187519771E+00   -4.0548237860055885E+00   -6.4598047744735014E+00
Se   -1.2190261526669606E+00   -4.2825372378706628E-01   -6.2681747492051976E+00
Se   -3.5145952917287206E+00    3.2088769159694999E+00   -5.9977275465876776E+00
Se    1.1395548608775452E+00   -7.0652478766505622E+00   -2.8642548581478464E+00
Se   -5.9992190615351273E+00    4.1929411361145812E+00   -2.2426793275218704E+00
Se   -1.2617760347518301E+00   -6.2044348738565063E+00    5.9775703833095561E-01
Se   -6.0454650587100112E+00    1.3693568511611789E+00    1.0692865071855333E+00
Se   -3.5151613672445303E+00   -5.3300989913005097E+00    4.1251627403065667E+00
Se   -6.0448000265660147E+00   -1.3622534409265132E+00    4.3812750432295671E+00
Se    4.9170009232892617E+00   -1.6400975357453398E+00   -7.3474755296301364E+00
Se    2.3997039853205391E+00    1.8804546755181670E+00   -7.1526607801039628E+00
Se    3.0227823100468681E-01    5.6386913951913220E+00   -6.9035734526962367E+00
Se    4.9068406347310036E+00   -4.4897382947053810E+00   -3.7736018301391869E+00
Se   -2.1932027414823354E+00    6.6018285626657098E+00   -3.2442245928840721E+00
Se    4.8677169296164946E+00   -7.4871272628634573E+00   -2.0111402712486839E-01
Se   -4.5770295904387979E+00    7.5487423883698037E+00    6.0440494490800911E-01
Se    2.3018519777103572E+00   -6.7223300284242846E+00    3.1133187701499709E+00
Se   -4.7999200969893634E+00    4.5830987155677763E+00    3.8391780386883272E+00
Se    2.5981993978539347E-01   -5.8008364129006997E+00    6.7229189095228250E+00
Se   -2.2462259857868307E+00   -1.9138364085829682E+00    7.0099030790806989E+00
Se   -4.7430444112435461E+00    1.9809124198752046E+00    7.2284878859962891E+00
Se    6.1780170697764003E+00    1.3958738348657285E+00   -4.6031501545169604E+00
Se    3.7115046800776521E+00    5.2912068134658181E+00   -4.3602290983723622E+00
Se    6.1378813980598341E+00   -1.3827547239190525E+00   -1.1473313193780574E+00
Se    1.2536759046346118E+00    6.1891574730571000E+00   -7.3133071715973830E-01
Se    6.1147269216099760E+00   -4.2228701077879167E+00    2.2383606338244935E+00
Se   -1.0544852297608267E+00    7.0458939467465136E+00    2.9030384394932489E+00
Se    3.6554863760044038E+00   -3.2872258774514358E+00    5.9197687200703291E+00
Se    1.2896352909347719E+00    3.9620720913918234E-01    6.1498863985244032E+00
Se   -1.0750613087074981E+00    4.1032379706147522E+00    6.3735772310883307E+00
Se    7.2693597881068515E+00    4.6998093603070092E+00   -2.1267828169342162E+00
Se    7.2854506098800371E+00    1.7291547985840581E+00    1.4272200937516000E+00
Se    4.7799390016967465E+00    5.6655441904645079E+00    1.5741266383555257E+00
Se    7.2742363142591175E+00   -1.1938606603863853E+00    5.0026923048398153E+00
Se    4.8254568184061162E+00    2.6363871852604555E+00    5.2269191732416020E+00
Se    2.5991139013888955E+00    6.5707166903279406E+00    5.4088649560452602E+00
C331   -1.6985555667412597E+00    8.2349430158312824E+00    8.2696161977970348E+00
C2O3   -1.5953422326239708E+00    7.6632174282851571E+00    6.8865873063395862E+00
O2D2   -2.6713278776578182E+00    7.3552162172563662E+00    6.3126254711104854E+00
O2D2   -4.2648213821481040E-01    7.5362833800231392E+00    6.4395033568733604E+00
HGA3   -1.1897173611215686E+00    9.2196850891846882E+00    8.2808104079884295E+00
HGA3   -1.1997959005346850E+00    7.5533279031183733E+00    8.9882201108882533E+00
HGA3   -2.7626679332748552E+00    8.3679680909059080E+00    8.5560507897639919E+00
C331    1.7876385612666141E+00    1.0975287301068958E+01   -3.9952304617689394E+00
C2O3    1.7798770061211355E+00    9.5518569160415119E+00   -4.4715458658524367E+00
O2D2    2.2887558500573713E+00    9.3131765062924146E+00   -5.5939946215029908E+00
O2D2    1.2741151212836974E+00    8.6898556390243034E+00   -3.7084750954523913E+00
HGA3    1.4241322077638818E+00    1.1030053916956929E+01   -2.9478829000804203E+00
HGA3    1.1317929389830170E+00    1.1580527105628688E+01   -4.6523683198475565E+00
HGA3    2.8228991555064717E+00    1.1367908930118265E+01   -4.0458827777736079E+00
C331   -5.1870841739636084E+00    1.4031656519233429E-01   -1.0831131733027448E+01
C2O3   -5.2743537346424914E+00   -1.9079033271556939E-01   -9.3703707125016837E+00
O2D2   -6.2160779761518192E+00   -9.4109649000403095E-01   -9.0170874535541259E+00
O2D2   -4.4082557110850376E+00    3.0684530765498946E-01   -8.6057388114894042E+00
HGA3   -4.3523662875675937E+00    8.4747591540591205E-01   -1.1011348062273131E+01
HGA3   -6.1419825010175852E+00    6.0701489607295056E-01   -1.1147588719269983E+01
HGA3   -5.0214062980410814E+00   -7.9389443534235482E-01   -1.1405372103633733E+01
C331    1.3078893966048382E+00   -2.2859232089069974E+00    1.1448699722512808E+01
C2O3    1.6191496456766787E+00   -2.8415764098857190E+00    1.0094151657026549E+01
O2D2    2.4079532500495651E+00   -3.8154870486815566E+00    1.0036124244159170E+01
O2D2    1.0576205021168181E+00   -2.3078484191674211E+00    9.1038993637596697E+00
HGA3    8.3380878439242267E-01   -3.0814949400023708E+00    1.2057010271637084E+01
HGA3    6.1472570223947276E-01   -1.4253473743881915E+00    1.1356320451931374E+01
HGA3    2.2482666325258092E+00   -1.9573605531631875E+00    1.1933704125165042E+01
C331   -7.6963384928729495E+00   -7.5686450330495045E+00   -4.7382313285434217E+00
C2O3   -6.9353918808372850E+00   -6.2751775228474260E+00   -4.7339289814409868E+00
O2D2   -7.5129639641383532E+00   -5.2812379527006152E+00   -4.2259500671714036E+00
O2D2   -5.7760362578115050E+00   -6.3147128943370578E+00   -5.2243693872266270E+00
HGA3   -7.1499793990285392E+00   -8.3159628756643738E+00   -4.1272582032881333E+00
HGA3   -7.7843335588664759E+00   -7.9277296806205371E+00   -5.7840461300977308E+00
HGA3   -8.7124294868680998E+00   -7.4143657853473393E+00   -4.3175658390481670E+00
C331    1.1700002799755419E+01   -2.5873394412180692E+00    1.0509022143867988E+00
C2O3    1.0328596311859975E+01   -2.7321109363387399E+00    1.6376889240128336E+00
O2D2    1.0143239217759223E+01   -3.7148461685208862E+00    2.3981530483268125E+00
O2D2    9.4636922084898263E+00   -1.8604155036391059E+00    1.3566053894080878E+00
HGA3    1.2436447328107665E+01   -2.5017033611230772E+00    1.8747608060353900E+00
HGA3    1.1747234966752510E+01   -1.6827343775219097E+00    4.1143614211539564E-01
HGA3    1.1929500759774523E+01   -3.4832156163418695E+00    4.4220189361089612E-01
C331   -1.0632276365452800E+01    2.7801253589866928E+00    4.4721705454529026E+00
C2O3   -9.2731861599474907E+00    2.3397757983468916E+00    4.0094707992603027E+00
O2D2   -9.1896887251691179E+00    1.9084813907428437E+00    2.8358536402030134E+00
O2D2   -8.3278526071418941E+00    2.4299800670663516E+00    4.8321052088307086E+00
HGA3   -1.0587429535919034E+01    3.8517077993104283E+00    4.7531594365405159E+00
HGA3   -1.0930116993936162E+01    2.1741225962265678E+00    5.3509107921144814E+00
HGA3   -1.1374513824381683E+01    2.6425387227698023E+00    3.6579027423945116E+00
C331    1.7737316728327681E+00    1.1421852145373711E+01    1.7539894424441682E+00
C2O3    1.5429425786988333E+00    1.0196522447505492E+01    2.5881951043687477E+00
O2D2    9.2970634661786844E-01    1.0363556172203507E+01    3.6696557035428450E+00
O2D2    1.9624186616089199E+00    9.0962762801927433E+00    2.1457681231234855E+00
HGA3    2.2864913606310089E+00    1.1149723077331604E+01    8.0797319244485744E-01
HGA3    2.3958473278530565E+00    1.2139169352617941E+01    2.3251718153431549E+00
HGA3    7.9378041259561039E-01    1.1889947208781988E+01    1.5283344902820057E+00
C331   -1.7239499802793645E+00   -1.1149912165997609E+01    3.8306083324073619E+00
C2O3   -1.0459419563584842E+00   -9.8303074827793040E+00    4.0640776158276690E+00
O2D2   -3.6390170949906549E-02   -9.8394732482803242E+00    4.8089344210523484E+00
O2D2   -1.5265250789174729E+00   -8.8186322932603396E+00    3.4919661782287807E+00
HGA3   -2.5648590392988098E+00   -1.1025543233882898E+01    3.1186902943468939E+00
HGA3   -2.1063086674140372E+00   -1.1539472790645904E+01    4.7960882165074654E+00
HGA3   -9.8847583813854323E-01   -1.1868675327772960E+01    3.4140695927567690E+00
C331    2.6547499954850728E+00    3.6533708690407569E+00    1.0501566236730113E+01
C2O3    1.9097116137502286E+00    4.2212308759947286E+00    9.3334540316169115E+00
O2D2    1.1019113860079737E+00    5.1630674287819227E+00    9.5288980113930304E+00
O2D2    2.1648222522343517E+00    3.7072373606966655E+00    8.2164760706641502E+00
HGA3    3.7401514884750280E+00    3.8202772857897669E+00    1.0343444806635238E+01
HGA3    2.4606919407986725E+00    2.5626935698225939E+00    1.0563713646407120E+01
HGA3    2.3312663772032680E+00    4.1474369465116165E+00    1.1440185451703153E+01
C331   -1.1365116622220177E+00    1.2021245879092325E+01   -1.1357766359752317E+00
C2O3   -1.2364474724086345E+00    1.0736665443040300E+01   -3.6136875969053278E-01
O2D2   -8.5705415352754000E-01    9.6824223969866043E+00   -9.2892720641387494E-01
O2D2   -1.7137379326919187E+00    1.0816332313493241E+01    7.9639919512104373E-01
HGA3   -4.7484424114306545E-01    1.2727178230403878E+01   -5.9287161875180006E-01
HGA3   -2.1495601385437961E+00    1.2463727883560615E+01   -1.2339364996533020E+00
HGA3   -7.2358192314293035E-01    1.1823191453776460E+01   -2.1460136492057642E+00
C331   -3.3555889865099924E+00   -3.6779928788525567E+00   -1.1013866192151324E+01
C2O3   -3.1170910199568413E+00   -3.5475199048093375E+00   -9.5349123557042113E+00
O2D2   -2.1198449237186781E+00   -2.8770717074442063E+00   -9.1637649842192825E+00
O2D2   -3.9533431111444113E+00   -4.1318112749670775E+00   -8.8021471195160768E+00
HGA3   -4.3590726694366362E+00   -3.2739577667245521E+00   -1.1258714621338351E+01
HGA3   -3.3183415106912415E+00   -4.7523192998745571E+00   -1.1284064262056301E+01
HGA3   -2.5812950378605235E+00   -3.1245312454503651E+00   -1.1581932607099265E+01
C331   -5.5335448264538041E+00   -1.0534814495316603E+01    1.7286787988312153E+00
C2O3   -5.4841357588884296E+00   -9.1595053987363730E+00    1.1306685177309566E+00
O2D2   -6.3633850574904178E+00   -8.8918667833365692E+00    2.7550284427133065E-01
O2D2   -4.5880190170098771E+00   -8.3748368640408515E+00    1.5332405136084404E+00
HGA3   -6.5337678571438085E+00   -1.0689446271265382E+01    2.1814542936146779E+00
HGA3   -4.7552588256166013E+00   -1.0639852381500745E+01    2.5101691528369496E+00
HGA3   -5.3713182223136817E+00   -1.1288142937141750E+01    9.3173489589277148E-01
C331   -1.1577388164976250E+01   -5.7772563735869542E-01    2.3562737409906163E+00
C2O3   -1.0416079593194164E+01   -1.2226959437834317E+00    1.6625979419824164E+00
O2D2   -1.0678340260878485E+01   -1.9480985049483976E+00    6.7170650615029348E-01
O2D2   -9.2619141639126159E+00   -1.0114622868877310E+00    2.1190574692629323E+00
HGA3   -1.1218460759486653E+01    1.1509694323756581E-02    3.2242148650048019E+00
HGA3   -1.2275082780006473E+01   -1.3663391119862380E+00    2.7014344045612786E+00
HGA3   -1.2096627729523844E+01    9.1314512378938700E-02    1.6430270319542242E+00
C331    4.7724652590220149E+00    9.7232775462170989E-02    1.0915022882728559E+01
C2O3    4.6042874037376755E+00    7.7089041174124365E-02    9.4221558905606599E+00
O2D2    4.4416708537604652E+00    1.1819657344820163E+00    8.8531140394723753E+00
O2D2    4.6456336270878760E+00   -1.0507330212228887E+00    8.8690103561765579E+00
HGA3    5.7441007651998452E+00   -3.6593248852783872E-01    1.1179719341494907E+01
HGA3    3.9500448271951742E+00   -4.8396716335761497E-01    1.1375025469048605E+01
HGA3    4.7434156541564088E+00    1.1398680208138305E+00    1.1292748646811564E+01
C331    1.0638511948788421E+01   -5.5852090077721721E+00   -1.6891306914104869E+00
C2O3    9.2637487456837242E+00   -4.9847657847236295E+00   -1.6336363770804241E+00
O2D2    8.8276194091164708E+00   -4.4607683655773069E+00   -2.6849514852831513E+00
O2D2    8.6651407675323764E+00   -5.0734898601771752E+00   -5.3376327757208941E-01
HGA3    1.0563765903729198E+01   -6.6750295929119963E+00   -1.5016539653670227E+00
HGA3    1.1271390986454671E+01   -5.1186298707951927E+00   -9.0937380455014316E-01
HGA3    1.1089429377120705E+01   -5.4091727279056805E+00   -2.6874187972531507E+00
C331    2.0489896108623887E-01   -1.1693119815554510E+01    4.8592504786810142E-01
C2O3    1.1144821808017378E+00   -1.0531185640347299E+01    7.5221421045405634E-01
O2D2    2.1824369188538957E+00   -1.0733136320675076E+01    1.3778914934880173E+00
O2D2    7.2859626152986623E-01   -9.4164291772675206E+00    3.2133403040651570E-01
HGA3    1.0241586183715293E-01   -1.1821567068170866E+01   -6.1075665310572558E-01
HGA3   -7.9195196424027270E-01   -1.1483336888067832E+01    9.2432057405921031E-01
HGA3    6.2187910273573077E-01   -1.2620564199572819E+01    9.3249405687473674E-01
C331    1.0571518281459143E+01   -2.3005303113047431E+00   -4.9144760011388691E+00
C2O3    9.2623324446904522E+00   -1.6187883249861250E+00   -5.1731750242819317E+00
O2D2    9.2514757070629923E+00   -7.0905767205361137E-01   -6.0395607328954846E+00
O2D2    8.2571594795256384E+00   -2.0027774815868766E+00   -4.5206930749100520E+00
HGA3    1.0881957795485997E+01   -2.8475729179534053E+00   -5.8264084078503515E+00
HGA3    1.0465458590806525E+01   -3.0134477994762072E+00   -4.0705141049463665E+00
HGA3    1.1335721489760326E+01   -1.5412255599120097E+00   -4.6593772197219332E+00
C331    4.8840444542933392E+00    1.0787610907620143E+01   -1.5492134177807670E+00
C2O3    4.3767465632392692E+00    9.3741294684356866E+00   -1.5466780537553988E+00
O2D2    3.4750478606902488E+00    9.0975141920593465E+00   -7.2127446859253963E-01
O2D2    4.9108782770121611E+00    8.5961240201375855E+00   -2.3758764495907023E+00
HGA3    4.7507416531561972E+00    1.1222016219414433E+01   -2.5601487414273461E+00
HGA3    5.9617278229689550E+00    1.0775871468458931E+01   -1.2910977555921599E+00
HGA3    4.3310879411652534E+00    1.1398777456856900E+01   -8.0640094969518017E-01
C331   -1.1753901855148367E+01    2.2604397783150274E+00   -8.3472807042795649E-01
C2O3   -1.0259712148340876E+01    2.1580800142352481E+00   -9.1852898561298579E-01
O2D2   -9.6015467965392318E+00    3.1569060675871072E+00   -5.4615431189755959E-01
O2D2   -9.8043428029894084E+00    1.0763206175085662E+00   -1.3657691508850107E+00
HGA3   -1.2135834477891644E+01    1.4235961010159905E+00   -2.1771964884835385E-01
HGA3   -1.2170274220176738E+01    2.1905672564663639E+00   -1.8592264243734296E+00
HGA3   -1.2045195681415914E+01    3.2278191139897836E+00   -3.7586348756400834E-01
C331   -3.1930585396509605E+00   -1.1539337458842938E+01   -2.0153736491495859E+00
C2O3   -3.1627762019695562E+00   -1.0048187257496789E+01   -2.1900209627636333E+00
O2D2   -2.2501069728940344E+00   -9.4158020153991355E+00   -1.5997715529662733E+00
O2D2   -4.0632128768835303E+00   -9.5652493235208809E+00   -2.9211369869116646E+00
HGA3   -3.0665884769702729E+00   -1.2007880837276602E+01   -3.0118232611482556E+00
HGA3   -4.1723305993446784E+00   -1.1837939283667625E+01   -1.5889688499660011E+00
HGA3   -2.3752138342512099E+00   -1.1868718897267032E+01   -1.3433701937287708E+00
C331   -1.4754748776543138E+00    2.2476507287234910E+00   -1.1743978313473853E+01
C2O3   -8.0670258254419913E-01    2.6067568571439983E+00   -1.0451176348096471E+01
O2D2    1.3892941717512766E-01    3.4289422549040367E+00   -1.0529073272400492E+01
O2D2   -1.2284446254278136E+00    2.0664835790460301E+00   -9.3958696551810839E+00
HGA3   -1.9858162386672515E+00    3.1486923401797609E+00   -1.2138462757271363E+01
HGA3   -2.2139526988129914E+00    1.4368068921926171E+00   -1.1586191787502543E+01
HGA3   -7.0355515959715709E-01    1.9157235590814863E+00   -1.2468388097043547E+01
C331    3.8129797151624140E-01   -1.2424614296331720E+00   -1.1605097254581491E+01
C2O3    1.2462801035695992E+00   -8.7081694765098250E-01   -1.0443119714044018E+01
O2D2    2.2598043383839466E+00   -1.6664580751195010E-01   -1.0670736725302419E+01
O2D2    8.9965282228554189E-01   -1.2901158042682768E+00   -9.3110282854211395E+00
HGA3   -5.0873479235828267E-01   -1.8036221951898703E+00   -1.1253790215234304E+01
HGA3    9.7086057399596237E-01   -1.8732333489753799E+00   -1.2300797547851598E+01
HGA3    5.7750790245942658E-02   -3.1923700952341488E-01   -1.2125053414950353E+01
C331    1.1818268013630540E+01    1.8230215981736456E-01   -2.2491879867391495E+00
C2O3    1.0327761171897537E+01    1.5047890313719142E-01   -2.0722664739624483E+00
O2D2    9.8392491309156238E+00   -8.3949115919642969E-01   -1.4779584693519390E+00
O2D2    9.6946299014447295E+00    1.1359850499321082E+00   -2.5246929608196873E+00
HGA3    1.2216275723153428E+01    1.0786472298451293E+00   -1.7318454040922659E+00
HGA3    1.2051066466789724E+01    2.4006493182177216E-01   -3.3317343127924732E+00
HGA3    1.2279498597407345E+01   -7.3047339707564873E-01   -1.8177141682309419E+00
C331   -1.9105222302173272E-01    1.5208705326978562E+00    1.1737171656313738E+01
C2O3   -3.0141032383068661E-01    1.3212592983062392E+00    1.0253746110162147E+01
O2D2    6.2275481412164424E-01    6.8025224667103401E-01    9.6991338574745658E+00
O2D2   -1.3155031575180700E+00    1.8026729576333551E+00    9.6938792476452651E+00
HGA3   -1.0831302539996712E+00    1.0745646574162855E+00    1.2220027804548206E+01
HGA3   -1.4654470323295091E-01    2.6057495749583350E+00    1.1964072314567481E+01
HGA3    7.2564525461623619E-01    1.0247871278466623E+00    1.2118572160730878E+01
C331   -1.0017263455059325E+01    5.3379811893862978E+00    1.8102661285880690E+00
C2O3   -8.5646888261130147E+00    5.4875753638584417E+00    2.1197587883157341E+00
O2D2   -8.2366174060583592E+00    6.1592471247979814E+00    3.1283059492847567E+00
O2D2   -7.7578089492640832E+00    4.9386420418568191E+00    1.3287022426955148E+00
HGA3   -1.0265716973278288E+01    4.2571612562518286E+00    1.7963184422982559E+00
HGA3   -1.0210763253947567E+01    5.7687238152986922E+00    8.0722793419993788E-01
HGA3   -1.0632744388286858E+01    5.8571652131826166E+00    2.5726012611267017E+00
     &END COORD
     &KIND C2O3
       ELEMENT C
     &END KIND
     &KIND C331
       ELEMENT C
     &END KIND
     &KIND CD
       ELEMENT Cd
     &END KIND
     &KIND HGA3
       ELEMENT H
     &END KIND
     &KIND O2D2
       ELEMENT O
     &END KIND
     &KIND SE
       ELEMENT Se
     &END KIND
     &TOPOLOGY
       COORD_FILE_FORMAT  OFF
       NUMBER_OF_ATOMS  305
       CONN_FILE_NAME /Users/bvanbeek/Documents/GitHub/qmflows/test/test_files/Cd68Cl26Se55__26_acetate.psf
       CONN_FILE_FORMAT  PSF
       MULTIPLE_UNIT_CELL  1 1 1
       &CENTER_COORDINATES  T
         CENTER_POINT     0.0000000000000000E+00    0.0000000000000000E+00    0.0000000000000000E+00
       &END CENTER_COORDINATES
     &END TOPOLOGY
   &END SUBSYS
 &END FORCE_EVAL
