 # Version information for this restart file 
 # current date 2020-03-19 17:55:09.585
 # current working dir /Users/bvanbeek/Documents/GitHub/qmflows/test/test_files/plams_workdir.006/cp2k_mm_opt
 # Program compiled at                             Fri Apr 19 11:24:34 CEST 2019
 # Program compiled on                                             192.168.1.124
 # Program compiled for                           Darwin-IntelMacintosh-gfortran
 # Source code revision number                                         svn:18464
 &GLOBAL
   PRINT_LEVEL  LOW
   PROJECT_NAME cp2k
   RUN_TYPE  GEO_OPT
 &END GLOBAL
 &MOTION
   &GEO_OPT
     TYPE  MINIMIZATION
     OPTIMIZER  LBFGS
     MAX_ITER  500
     STEP_START_VAL  500
   &END GEO_OPT
 &END MOTION
 &FORCE_EVAL
   METHOD  FIST
   &MM
     &FORCEFIELD
       PARMTYPE  CHM
       PARM_FILE_NAME /Users/bvanbeek/Documents/GitHub/qmflows/test/test_files/Cd68Cl26Se55__26_acetate.prm
       VDW_SCALE14     1.0000000000000000E+00
       EI_SCALE14     1.0000000000000000E+00
       SHIFT_CUTOFF  T
       DO_NONBONDED  T
       IGNORE_MISSING_CRITICAL_PARAMS  T
       &SPLINE
         R0_NB     2.5000000000000000E-01
       &END SPLINE
       &NONBONDED
         &LENNARD-JONES
           ATOMS Cd C2O3
           EPSILON     7.7847969578400509E+01
           SIGMA     2.9841000000000002E+00
         &END LENNARD-JONES
         &LENNARD-JONES
           ATOMS Cd C331
           EPSILON     7.7847969578400509E+01
           SIGMA     2.9841000000000002E+00
         &END LENNARD-JONES
         &LENNARD-JONES
           ATOMS Cd Cd
           EPSILON     3.7288523243435542E+01
           SIGMA     1.2340000000000000E+00
         &END LENNARD-JONES
         &LENNARD-JONES
           ATOMS Cd HGA3
           EPSILON     5.0422537503269112E+01
           SIGMA     2.5541999999999998E+00
         &END LENNARD-JONES
         &LENNARD-JONES
           ATOMS Cd O2D2
           EPSILON     2.2056086015651550E+02
           SIGMA     2.4710000000000001E+00
         &END LENNARD-JONES
         &LENNARD-JONES
           ATOMS Cd Se
           EPSILON     1.8312137123193244E+02
           SIGMA     2.9399999999999999E+00
         &END LENNARD-JONES
         &LENNARD-JONES
           ATOMS Se C2O3
           EPSILON     8.7962670215283850E+01
           SIGMA     3.5884999999999998E+00
         &END LENNARD-JONES
         &LENNARD-JONES
           ATOMS Se C331
           EPSILON     8.7962670215283850E+01
           SIGMA     3.5884999999999998E+00
         &END LENNARD-JONES
         &LENNARD-JONES
           ATOMS Se HGA3
           EPSILON     5.6964383686327977E+01
           SIGMA     3.1587000000000001E+00
         &END LENNARD-JONES
         &LENNARD-JONES
           ATOMS Se O2D2
           EPSILON     1.9404122216826917E+02
           SIGMA     3.5259999999999998E+00
         &END LENNARD-JONES
         &LENNARD-JONES
           ATOMS Se Se
           EPSILON     5.1328331590154185E+01
           SIGMA     4.8520000000000003E+00
         &END LENNARD-JONES
       &END NONBONDED
       &CHARGE
         ATOM C2O3
         CHARGE     4.5240000000000002E-01
       &END CHARGE
       &CHARGE
         ATOM Cd
         CHARGE     9.7680000000000000E-01
       &END CHARGE
       &CHARGE
         ATOM O2D2
         CHARGE    -4.7039999999999998E-01
       &END CHARGE
       &CHARGE
         ATOM Se
         CHARGE    -9.7680000000000000E-01
       &END CHARGE
     &END FORCEFIELD
     &POISSON
       PERIODIC  NONE
       &EWALD
         EWALD_TYPE  NONE
       &END EWALD
     &END POISSON
     &PRINT
       &FF_INFO  LOW
         SPLINE_INFO  F
         SPLINE_DATA  F
       &END FF_INFO
     &END PRINT
   &END MM
   &SUBSYS
     &CELL
       A     5.0000000000000007E+01    0.0000000000000000E+00    0.0000000000000000E+00
       B     0.0000000000000000E+00    5.0000000000000007E+01    0.0000000000000000E+00
       C     0.0000000000000000E+00    0.0000000000000000E+00    5.0000000000000007E+01
       PERIODIC  NONE
       MULTIPLE_UNIT_CELL  1 1 1
     &END CELL
     &COORD
Cd   -2.6842348390632091E+00   -1.5260985059849155E+00   -4.2250582004211710E+00
Cd   -2.6835652146878104E+00   -4.3686416302035118E+00   -8.3169132475036711E-01
Cd   -5.0825249892202171E+00   -6.1870863672005649E-01   -5.6623570375652821E-01
Cd    8.4751519257790453E-01    7.8650577264193067E-01   -5.0582518411049264E+00
Cd    9.5226912369923677E-01   -2.0280704230557403E+00   -1.7660063567078799E+00
Cd   -1.5378885759001333E+00    1.8397348004013221E+00   -1.5043279445906141E+00
Cd    7.9727133924226434E-01   -4.8480309311833851E+00    1.6337424021407307E+00
Cd   -1.5425819407435168E+00   -1.1059942636277336E+00    1.9806113860049455E+00
Cd   -3.8469497495267122E+00    2.6035122663595578E+00    2.1418149995662148E+00
Cd    4.5892057854778319E+00    3.0949748327882182E-01   -2.5618970694416268E+00
Cd    2.1075764440066700E+00    4.1588825843789206E+00   -2.2800982630804394E+00
Cd    4.5735304157161201E+00   -2.4148713291417554E+00    7.7137404923240804E-01
Cd    2.2316649207179307E+00    1.2848845161160591E+00    1.0959080489379844E+00
Cd   -1.8167154521099110E-01    4.9954010663406985E+00    1.2744670025462330E+00
Cd    2.1202398917853147E+00   -1.4861024575020596E+00    4.4319197127155165E+00
Cd   -1.8382917826393630E-01    2.1691796537154087E+00    4.6615305622133514E+00
Se   -1.2330162833489429E+00   -3.2731408718626112E+00   -2.8040209232216302E+00
Se   -3.5953733628654287E+00    4.1033771924188817E-01   -2.5758570218088837E+00
Se   -3.6228240033283154E+00   -2.4038571310395840E+00    8.1018464513613264E-01
Se    2.4573712595041375E+00   -8.4791302450009298E-01   -3.7041237153542110E+00
Se    9.7506321673910074E-02    2.8309003648868472E+00   -3.4757552506179152E+00
Se    2.4421311242362354E+00   -3.7628044119448778E+00   -2.0297989453042950E-01
Se    4.7439145092972528E-02   -2.4714760841133731E-02   -4.9611056351301835E-02
Se   -2.3412472390265453E+00    3.7309147255029420E+00    2.5035661515512192E-01
Se    6.9678863641604569E-02   -2.8809448155457260E+00    3.3432569893384252E+00
Se   -2.3523037529970252E+00    9.1824269491803845E-01    3.6087016190724208E+00
Se    3.6781938196804216E+00    2.3436560939685083E+00   -1.0498891108856678E+00
Se    3.6739802194407805E+00   -5.5526239333161542E-01    2.4622868524161259E+00
Se    1.2844529299132299E+00    3.2379405093113127E+00    2.6923222359843528E+00
Cd   -4.1449130907675373E+00   -5.0108821542826067E+00   -6.7176001580080387E+00
Cd   -6.0017347101562102E+00   -8.0678675810179756E-01   -6.7246080157213637E+00
Cd   -4.0317607118255596E+00   -7.4541985330768936E+00   -3.7411217379377248E+00
Cd   -6.0980755477786932E+00   -3.7588482370547149E+00   -3.2304687781113235E+00
Cd   -8.6100853769392529E+00   -3.7666740794861028E-02   -2.9349881419158979E+00
Cd   -6.1518878355565683E+00   -6.6255716042747776E+00    2.3098443759026607E-01
Cd   -8.5435748421125819E+00   -2.8379171204940650E+00    5.7315780807316785E-01
Cd   -3.5557566767570359E-01   -2.4725338097794660E+00   -7.7990057707987894E+00
Cd   -2.6365119413886813E+00    1.3985855793614337E+00   -7.6387593675939165E+00
Cd   -1.5364410632825345E-01   -5.5141825499580461E+00   -4.6570539684149299E+00
Cd   -5.3036781034445832E+00    2.4570417408109773E+00   -4.1289058784181387E+00
Cd   -4.5260801896127162E-01   -8.0901132707939603E+00   -1.1188209182835873E+00
Cd   -7.3789597338494941E+00    3.2875926453418503E+00   -2.3814324882451626E-01
Cd   -2.8448865331886477E+00   -7.2263039880927167E+00    2.5078956703055382E+00
Cd   -5.2979610610266210E+00   -3.5899816128209201E+00    3.1135453391367163E+00
Cd   -7.5347578323386166E+00    2.7702130901915167E-01    2.9937202752799834E+00
Cd    3.0625410989562081E+00   -3.5195096778079576E-01   -8.5028674092797232E+00
Cd    7.0901908295938398E-01    3.5808874100587582E+00   -8.3360569462875400E+00
Cd    3.4338981177571291E+00   -3.0553278007867508E+00   -5.4701373492733882E+00
Cd   -1.5512645290544167E+00    4.6673860491275896E+00   -4.9631035746229646E+00
Cd    3.3834727301752432E+00   -5.8417944190523530E+00   -2.0311466138555123E+00
Cd   -3.9986616976963574E+00    5.7763564991518175E+00   -1.4525319737869360E+00
Cd    2.9650422029239585E+00   -8.5577284215535165E+00    1.1673805713280034E+00
Cd   -6.0461304309043751E+00    6.3372014384476048E+00    2.2890858747900658E+00
Cd    4.6350443871821817E-01   -7.6060337161669196E+00    4.9314211370252643E+00
Cd   -1.5781460243227221E+00   -3.9906367318652127E+00    5.4339957516651154E+00
Cd   -3.9989789539997838E+00   -3.4783884638050178E-01    5.7493172227221034E+00
Cd   -6.2996911065458834E+00    3.1705807323501092E+00    5.5827140658205812E+00
Cd    6.9366019143881275E+00   -7.0661193621059626E-01   -6.1235258187223360E+00
Cd    4.2506511411217591E+00    2.9741260712663751E+00   -5.5828018014233525E+00
Cd    1.9069084638385276E+00    7.0123016938158909E+00   -5.4825537974510867E+00
Cd    6.9871258317137714E+00   -3.1912495558635983E+00   -2.9224098690239297E+00
Cd   -2.2832771140899938E-01    7.8931224949672742E+00   -2.1770616215248175E+00
Cd    6.8542297683267392E+00   -6.0241702797100833E+00    3.9075198997100413E-01
Cd   -2.3697324982997565E+00    8.6681079745542036E+00    1.2860349982483466E+00
Cd    4.1612499455949310E+00   -4.9801250366863332E+00    3.8991736864939193E+00
Cd   -2.4799012266007847E+00    5.6796760711133487E+00    4.7255044740715757E+00
Cd    1.9521539430458406E+00   -4.2146450623360421E+00    7.7810661164870396E+00
Cd   -2.2349923042829686E-01   -7.0753963738450554E-01    8.0760677773764744E+00
Cd   -2.5517494621613546E+00    2.8956193208236369E+00    8.1623839898153605E+00
Cd    8.1735961745820056E+00    2.6082612326848094E+00   -3.2940677034168147E+00
Cd    5.5708688632194985E+00    6.4873734547734401E+00   -2.8171176444604584E+00
Cd    8.2364894639977706E+00   -2.6546632830074013E-01    6.7580599424307872E-02
Cd    5.9294933338152935E+00    3.6894857799627974E+00    1.9230049820795464E-01
Cd    3.0621352293210693E+00    7.4699464971599925E+00    8.0993506863660814E-01
Cd    8.1795463431129214E+00   -2.7944419900472055E+00    3.2315095744453797E+00
Cd    5.9342330904437546E+00    9.0832007454158104E-01    3.5790025341966349E+00
Cd    3.7216495348419572E+00    4.6625642675805477E+00    3.8548125283428289E+00
Cd    8.4990135719478410E-01    8.1740767507282861E+00    4.3931446297898527E+00
Cd    5.5230600679380579E+00   -1.5335272632010530E+00    6.8300740769886286E+00
Cd    3.2048958216136088E+00    1.9692448521697976E+00    7.1331983742135252E+00
Cd    1.0114029073239292E+00    5.6204853299717250E+00    7.2002972679648520E+00
Se   -2.4600753691992998E+00   -6.6031876091830952E+00   -5.5866133506779887E+00
Se   -4.8185799124907049E+00   -2.8072220445327916E+00   -5.3819096166531208E+00
Se   -7.2938495380707389E+00    6.6745638463050172E-01   -5.0178861973157707E+00
Se   -4.8324140290815336E+00   -5.7197094274150864E+00   -1.8686198964133691E+00
Se   -7.2856370483666311E+00   -1.9236518382782917E+00   -1.6193011670680977E+00
Se   -7.3328557649786559E+00   -4.8276189126492977E+00    1.6059527369656081E+00
Se    1.1841324981381585E+00   -4.0545447867728193E+00   -6.4597610969431107E+00
Se   -1.2189573480185825E+00   -4.2865072718921660E-01   -6.2682333229638321E+00
Se   -3.5141882266636295E+00    3.2088186605058020E+00   -5.9977629390284708E+00
Se    1.1396263394386712E+00   -7.0649492833378522E+00   -2.8644814230603326E+00
Se   -5.9994268481981976E+00    4.1929012900697611E+00   -2.2426604318207208E+00
Se   -1.2616761277727584E+00   -6.2045663877095123E+00    5.9761177669951959E-01
Se   -6.0455114333250064E+00    1.3694604541715141E+00    1.0693212466079665E+00
Se   -3.5150736369368483E+00   -5.3300804403949229E+00    4.1250863290230404E+00
Se   -6.0445011657683807E+00   -1.3620985666356811E+00    4.3814402182052996E+00
Se    4.9168302601318175E+00   -1.6400038399514445E+00   -7.3473396698410083E+00
Se    2.3999909421705663E+00    1.8808130196566113E+00   -7.1524165369413772E+00
Se    3.0243169370703032E-01    5.6387950208197886E+00   -6.9034981787937610E+00
Se    4.9069362872446858E+00   -4.4895454209544736E+00   -3.7732347743192292E+00
Se   -2.1929336010833622E+00    6.6020743649259890E+00   -3.2443260985122326E+00
Se    4.8677450455358580E+00   -7.4871482601801578E+00   -2.0128745031031883E-01
Se   -4.5772140404592454E+00    7.5485539604678937E+00    6.0425841616580567E-01
Se    2.3016834001117212E+00   -6.7225089456848055E+00    3.1132180325818388E+00
Se   -4.7999356970887188E+00    4.5831797127119689E+00    3.8393237141523566E+00
Se    2.5966647032489437E-01   -5.8008156319545892E+00    6.7228522442726986E+00
Se   -2.2462618186531009E+00   -1.9139390548110520E+00    7.0098888307562461E+00
Se   -4.7427796706114913E+00    1.9811120677980871E+00    7.2285765115132810E+00
Se    6.1782962535498491E+00    1.3958214955455752E+00   -4.6031893862072479E+00
Se    3.7116901690684827E+00    5.2912723256449041E+00   -4.3598688661015306E+00
Se    6.1380421725695742E+00   -1.3830450579935489E+00   -1.1474117733359774E+00
Se    1.2536857965033519E+00    6.1889681518900748E+00   -7.3124764273895015E-01
Se    6.1147362347033756E+00   -4.2229522541265156E+00    2.2385443577325188E+00
Se   -1.0546279849988220E+00    7.0458671288233496E+00    2.9033224897146122E+00
Se    3.6555401664232900E+00   -3.2873217512585819E+00    5.9196372290606663E+00
Se    1.2895521599601947E+00    3.9595487847528438E-01    6.1498448614904042E+00
Se   -1.0750321807583887E+00    4.1034099671656623E+00    6.3736955989752069E+00
Se    7.2692004062154831E+00    4.6997075406560489E+00   -2.1266197181896831E+00
Se    7.2854614938871478E+00    1.7295670392646660E+00    1.4273947246720777E+00
Se    4.7798951545508492E+00    5.6654681566383012E+00    1.5742078666221528E+00
Se    7.2741431865424646E+00   -1.1940120764269624E+00    5.0028492889994869E+00
Se    4.8254624567928754E+00    2.6363995988123734E+00    5.2269423423714327E+00
Se    2.5991467612049886E+00    6.5707821325424094E+00    5.4090895656984079E+00
C331   -1.6988875786910436E+00    8.2349397206725072E+00    8.2695484417995377E+00
C2O3   -1.5954713261822504E+00    7.6631414723535469E+00    6.8865652053351845E+00
O2D2   -2.6714395267781534E+00    7.3551579705414101E+00    6.3125475623704803E+00
O2D2   -4.2660374669609818E-01    7.5361264281995188E+00    6.4395443576324922E+00
HGA3   -1.1900463908708534E+00    9.2196882801567952E+00    8.2806888520682218E+00
HGA3   -1.2002583476317494E+00    7.5532951445249221E+00    8.9882158958348626E+00
HGA3   -2.7630095684310532E+00    8.3680876751605791E+00    8.5559268804508601E+00
C331    1.7878098981106252E+00    1.0975343446595577E+01   -3.9955585149534811E+00
C2O3    1.7798111515061978E+00    9.5518650192786971E+00   -4.4716134665913652E+00
O2D2    2.2887301528584931E+00    9.3127888120808660E+00   -5.5939663193611260E+00
O2D2    1.2738296503555568E+00    8.6902104524506232E+00   -3.7083245670100560E+00
HGA3    1.4243478660756650E+00    1.1030388777548747E+01   -2.9482087029842243E+00
HGA3    1.1321596212901857E+00    1.1580659130497391E+01   -4.6527923132866134E+00
HGA3    2.8231807260623918E+00    1.1367569100750881E+01   -4.0463740374761343E+00
C331   -5.1874163931352060E+00    1.3987873656140512E-01   -1.0831251558274014E+01
C2O3   -5.2742842529129570E+00   -1.9156636136590163E-01   -9.3704232192192567E+00
O2D2   -6.2159110137976663E+00   -9.4206390673702756E-01   -9.0169758060963421E+00
O2D2   -4.4084731826741406E+00    3.0681715541907523E-01   -8.6058415074778321E+00
HGA3   -4.3525365499616289E+00    8.4699865131640661E-01   -1.1011402870948832E+01
HGA3   -6.1424183476841927E+00    6.0680905956711328E-01   -1.1147500830375064E+01
HGA3   -5.0219946345108406E+00   -7.9425156877303293E-01   -1.1405768977981344E+01
C331    1.3073614658249058E+00   -2.2861474345311965E+00    1.1448408899955581E+01
C2O3    1.6187741172814425E+00   -2.8417745900294151E+00    1.0093948869719078E+01
O2D2    2.4077880756420820E+00   -3.8155147025241618E+00    1.0035965515877088E+01
O2D2    1.0571323799590047E+00   -2.3081762836446575E+00    9.1037094720171474E+00
HGA3    8.3347204655018181E-01   -3.0818357352579810E+00    1.2056680278369873E+01
HGA3    6.1401203021434358E-01   -1.4257125562343371E+00    1.1356051900921916E+01
HGA3    2.2476553640502930E+00   -1.9574670670521190E+00    1.1933463798319542E+01
C331   -7.6967934799832349E+00   -7.5680788585263334E+00   -4.7370199268009987E+00
C2O3   -6.9358242402689934E+00   -6.2744957578555010E+00   -4.7331626671678082E+00
O2D2   -7.5133596138013097E+00   -5.2804579050180163E+00   -4.2252536592969872E+00
O2D2   -5.7765740246211177E+00   -6.3138182795383688E+00   -5.2238176389126867E+00
HGA3   -7.1508659453173768E+00   -8.3141620185070408E+00   -4.1242241752623814E+00
HGA3   -7.7830517692426611E+00   -7.9290383245164238E+00   -5.7822936294980662E+00
HGA3   -8.7135830740277207E+00   -7.4136608522442291E+00   -4.3181172055000534E+00
C331    1.1700209920026921E+01   -2.5868307876544421E+00    1.0508074251950368E+00
C2O3    1.0328891808819034E+01   -2.7314820909694433E+00    1.6375679341214353E+00
O2D2    1.0143383531498769E+01   -3.7142425545896725E+00    2.3979836950609590E+00
O2D2    9.4637637144705877E+00   -1.8599120383054608E+00    1.3563303998708973E+00
HGA3    1.2436639971972500E+01   -2.5008953200589574E+00    1.8746231986380844E+00
HGA3    1.1747436680376314E+01   -1.6823959410444160E+00    4.1111259073797257E-01
HGA3    1.1929975863709750E+01   -3.4828733419800604E+00    4.4242767097180485E-01
C331   -1.0631824653161763E+01    2.7803016118666113E+00    4.4724778020798714E+00
C2O3   -9.2729040416857451E+00    2.3398200950448058E+00    4.0096365814433428E+00
O2D2   -9.1896641356838629E+00    1.9085025036808825E+00    2.8360350514642221E+00
O2D2   -8.3275895156693949E+00    2.4301191010695860E+00    4.8322220349816387E+00
HGA3   -1.0586660526418154E+01    3.8518021772259954E+00    4.7533980404110912E+00
HGA3   -1.0929575705200287E+01    2.1742521206141578E+00    5.3511239394235810E+00
HGA3   -1.1374335267026707E+01    2.6430336371864915E+00    3.6584981086330481E+00
C331    1.7739658244183591E+00    1.1421625053068281E+01    1.7539519615111157E+00
C2O3    1.5430399108914150E+00    1.0196403306379558E+01    2.5881997663080294E+00
O2D2    9.2996691775662743E-01    1.0363535477004637E+01    3.6697755506723930E+00
O2D2    1.9622399816150926E+00    9.0961263779537056E+00    2.1455512190962951E+00
HGA3    2.2865015745991704E+00    1.1149497820676798E+01    8.0781394707120679E-01
HGA3    2.3963860833364339E+00    1.2138815082716242E+01    2.3250092029966192E+00
HGA3    7.9411518186557595E-01    1.1889939289612052E+01    1.5282558464080240E+00
C331   -1.7236988863330487E+00   -1.1149994740670756E+01    3.8304526116387021E+00
C2O3   -1.0459243976633374E+00   -9.8304721481693313E+00    4.0642405393363923E+00
O2D2   -3.6582610000162233E-02   -9.8395992950239144E+00    4.8094764242662684E+00
O2D2   -1.5260737258640233E+00   -8.8187277259417129E+00    3.4917132024448967E+00
HGA3   -2.5641438979580711E+00   -1.1025576426770590E+01    3.1179643719186818E+00
HGA3   -2.1065765690729710E+00   -1.1539540218549396E+01    4.7957087661859026E+00
HGA3   -9.8799399920921671E-01   -1.1868885272193829E+01    3.4144194508466925E+00
C331    2.6549233682601496E+00    3.6535357806497464E+00    1.0501484214212391E+01
C2O3    1.9097651142342218E+00    4.2213459594517699E+00    9.3333663060069778E+00
O2D2    1.1018299543016774E+00    5.1630670127946461E+00    9.5290578915841433E+00
O2D2    2.1645882081998180E+00    3.7072041521465642E+00    8.2163969405774964E+00
HGA3    3.7403041950578415E+00    3.8207447489707604E+00    1.0343458359015944E+01
HGA3    2.4610463827166011E+00    2.5628011685903176E+00    1.0563734460547806E+01
HGA3    2.3312680964832535E+00    4.1473884807132171E+00    1.1440157248506701E+01
C331   -1.1365574206084941E+00    1.2021173206520983E+01   -1.1361157568276941E+00
C2O3   -1.2364216850996592E+00    1.0736813420940299E+01   -3.6127845759215499E-01
O2D2   -8.5701189640424480E-01    9.6824138561442457E+00   -9.2859283484640709E-01
O2D2   -1.7140446425991429E+00    1.0816507732891786E+01    7.9634061054382521E-01
HGA3   -4.7461572768809629E-01    1.2727066053250823E+01   -5.9347960662117694E-01
HGA3   -2.1495715067280594E+00    1.2463990340154918E+01   -1.2341032459240426E+00
HGA3   -7.2369112760883536E-01    1.1822966140770905E+01   -2.1464592803074893E+00
C331   -3.3555992338971894E+00   -3.6777033544984787E+00   -1.1013832704591241E+01
C2O3   -3.1170595381039377E+00   -3.5473888318670159E+00   -9.5349065935371247E+00
O2D2   -2.1199551754122883E+00   -2.8767290372793197E+00   -9.1637680156174728E+00
O2D2   -3.9532210451174570E+00   -4.1318857636851396E+00   -8.8022167710922563E+00
HGA3   -4.3591971695810230E+00   -3.2739529155414182E+00   -1.1258532552486848E+01
HGA3   -3.3179232276587838E+00   -4.7519213472871584E+00   -1.1284292015896929E+01
HGA3   -2.5816609863595077E+00   -3.1238307057520838E+00   -1.1581900124211517E+01
C331   -5.5333935175927982E+00   -1.0534861544803611E+01    1.7284485310477860E+00
C2O3   -5.4839529764449040E+00   -9.1595443102952316E+00    1.1306298808607844E+00
O2D2   -6.3631808442190207E+00   -8.8918440091259310E+00    2.7546402995521546E-01
O2D2   -4.5878262640968854E+00   -8.3749568155163221E+00    1.5333404145268579E+00
HGA3   -6.5337459964975002E+00   -1.0689597561807600E+01    2.1808623857990330E+00
HGA3   -4.7553683837557621E+00   -1.0639776075110362E+01    2.5101878514108380E+00
HGA3   -5.3707815809961659E+00   -1.1288107947964024E+01    9.3151939264099282E-01
C331   -1.1577412234710238E+01   -5.7795051203704406E-01    2.3567651227632713E+00
C2O3   -1.0416127380843914E+01   -1.2224930231802704E+00    1.6627205959409979E+00
O2D2   -1.0678251867027107E+01   -1.9476306275984461E+00    6.7159973312426924E-01
O2D2   -9.2619673301417276E+00   -1.0115194333322088E+00    2.1194597064091121E+00
HGA3   -1.1218587051680061E+01    1.1041907449221396E-02    3.2249278132153982E+00
HGA3   -1.2274960351371959E+01   -1.3668084299382730E+00    2.7017046114220924E+00
HGA3   -1.2096676365106022E+01    9.1327225040478244E-02    1.6437756478276397E+00
C331    4.7716062545854330E+00    9.7555484111395280E-02    1.0915330026046611E+01
C2O3    4.6040690067308221E+00    7.7000501163338453E-02    9.4224105226647765E+00
O2D2    4.4417708352342640E+00    1.1817111016450081E+00    8.8530278601719576E+00
O2D2    4.6460396589144368E+00   -1.0509073832430160E+00    8.8694659872531147E+00
HGA3    5.7432007702300973E+00   -3.6522944923436917E-01    1.1180585682285882E+01
HGA3    3.9491441312558164E+00   -4.8365218114583153E-01    1.1374962205915150E+01
HGA3    4.7422335351505636E+00    1.1402585239866121E+00    1.1292614897009088E+01
C331    1.0638624391630529E+01   -5.5853129007416777E+00   -1.6890348294376363E+00
C2O3    9.2638212343939603E+00   -4.9848130641099626E+00   -1.6337031024855013E+00
O2D2    8.8279139343083024E+00   -4.4606054986947079E+00   -2.6849958823413105E+00
O2D2    8.6653076843281287E+00   -5.0735845790214027E+00   -5.3390292229862246E-01
HGA3    1.0563573655848064E+01   -6.6750841265273051E+00   -1.5015493630834353E+00
HGA3    1.1271454784351182E+01   -5.1189293574375121E+00   -9.0913165866238810E-01
HGA3    1.1089906543931116E+01   -5.4093836288034804E+00   -2.6871810038137474E+00
C331    2.0492020210492962E-01   -1.1693487748117665E+01    4.8571058735458900E-01
C2O3    1.1145733793716275E+00   -1.0531547252556921E+01    7.5163022596155016E-01
O2D2    2.1826884959368478E+00   -1.0733367210330645E+01    1.3771116480296259E+00
O2D2    7.2847642341667129E-01   -9.4168079978355781E+00    3.2085171527918044E-01
HGA3    1.0219966133344807E-01   -1.1822044183097638E+01   -6.1093260717804065E-01
HGA3   -7.9190439647637989E-01   -1.1483808856647705E+01    9.2428575428129334E-01
HGA3    6.2203349356939353E-01   -1.2620897961970819E+01    9.3225474081294091E-01
C331    1.0571623114725149E+01   -2.3006786465162063E+00   -4.9149928461983352E+00
C2O3    9.2624271572307322E+00   -1.6188763725044717E+00   -5.1732462087934490E+00
O2D2    9.2515425567211214E+00   -7.0905858679151001E-01   -6.0395155902526643E+00
O2D2    8.2573118122643052E+00   -2.0027448896136386E+00   -4.5205977438328651E+00
HGA3    1.0881788430984884E+01   -2.8475810785414355E+00   -5.8271086836559647E+00
HGA3    1.0465654841672954E+01   -3.0136946739802224E+00   -4.0711096594761926E+00
HGA3    1.1335868857825705E+01   -1.5413554459855823E+00   -4.6600127549356500E+00
C331    4.8831651988503673E+00    1.0787743941845997E+01   -1.5486654037641605E+00
C2O3    4.3763050210275170E+00    9.3741573423386715E+00   -1.5467806906044828E+00
O2D2    3.4744696128284680E+00    9.0970358946500163E+00   -7.2166194102831149E-01
O2D2    4.9106838770426462E+00    8.5965522922927082E+00   -2.3761037103567482E+00
HGA3    4.7500703191775422E+00    1.1222567379029522E+01   -2.5594133585481034E+00
HGA3    5.9607205275786903E+00    1.0776283190747559E+01   -1.2901598917005750E+00
HGA3    4.3296617550255263E+00    1.1398295752199584E+01   -8.0584822448228888E-01
C331   -1.1753861685837196E+01    2.2603715532780804E+00   -8.3426624429038343E-01
C2O3   -1.0259569831266276E+01    2.1580171624640321E+00   -9.1854093154891303E-01
O2D2   -9.6011811211302902E+00    3.1564480545032665E+00   -5.4599230005319899E-01
O2D2   -9.8040766717940713E+00    1.0764213286373943E+00   -1.3658341247652066E+00
HGA3   -1.2135934082101548E+01    1.4237954034656999E+00   -2.1681060158284121E-01
HGA3   -1.2170346373344916E+01    2.1904441398946086E+00   -1.8587046208523730E+00
HGA3   -1.2044991551879454E+01    3.2279348526039255E+00   -3.7564055366280519E-01
C331   -3.1939626549261013E+00   -1.1539176021037926E+01   -2.0152292035961987E+00
C2O3   -3.1631853079042997E+00   -1.0048217532514093E+01   -2.1903102130240906E+00
O2D2   -2.2499436892105429E+00   -9.4161686757639131E+00   -1.6003625969132198E+00
O2D2   -4.0636019641586678E+00   -9.5650414756945032E+00   -2.9213282086549386E+00
HGA3   -3.0673276151071693E+00   -1.2007830446181861E+01   -3.0115623097478674E+00
HGA3   -4.1734451646057611E+00   -1.1837468922336974E+01   -1.5891631471142769E+00
HGA3   -2.3763794269861251E+00   -1.1868461665857932E+01   -1.3428588265082120E+00
C331   -1.4755614413327187E+00    2.2475467045632467E+00   -1.1744043080255707E+01
C2O3   -8.0714941110675598E-01    2.6070497665204555E+00   -1.0451044805457032E+01
O2D2    1.3858882730788658E-01    3.4289914512439679E+00   -1.0528981154094859E+01
O2D2   -1.2288694697601670E+00    2.0668764923910614E+00   -9.3956904900646379E+00
HGA3   -1.9857371181859533E+00    3.1483810084403685E+00   -1.2139043043556059E+01
HGA3   -2.2141522722780747E+00    1.4368070805759479E+00   -1.1586450040851863E+01
HGA3   -7.0349396646154061E-01    1.9154764752920568E+00   -1.2468241485272335E+01
C331    3.8218633842466870E-01   -1.2425561409366854E+00   -1.1605585300605519E+01
C2O3    1.2469040236216189E+00   -8.7118631887538456E-01   -1.0443275469748578E+01
O2D2    2.2603735972454224E+00   -1.6675582470594943E-01   -1.0670674480475093E+01
O2D2    8.9956473650618274E-01   -1.2904795375205826E+00   -9.3116288440040211E+00
HGA3   -5.0806390887157793E-01   -1.8037739630833485E+00   -1.1254847482815181E+01
HGA3    9.7203073524984918E-01   -1.8733204393489342E+00   -1.2301006741262338E+01
HGA3    5.8821697533441845E-02   -3.1925689772794968E-01   -1.2125566931487455E+01
C331    1.1818372560541247E+01    1.8170096328394955E-01   -2.2486652007675287E+00
C2O3    1.0327678304426627E+01    1.5051741320479922E-01   -2.0718290722425587E+00
O2D2    9.8384469692438490E+00   -8.3934692262827570E-01   -1.4779863645035716E+00
O2D2    9.6950430693561973E+00    1.1363524177152631E+00   -2.5240155537739262E+00
HGA3    1.2216733368401323E+01    1.0776150673491616E+00   -1.7308147062212040E+00
HGA3    1.2051394698009878E+01    2.4002041180166109E-01   -3.3311582546963590E+00
HGA3    1.2279143861331470E+01   -7.3159985192790145E-01   -1.8177160549146070E+00
C331   -1.9092537785535427E-01    1.5212902745303720E+00    1.1736723703495363E+01
C2O3   -3.0103888575090609E-01    1.3209909245568028E+00    1.0253550330116704E+01
O2D2    6.2331607128979627E-01    6.8019085021417691E-01    9.6989619863451253E+00
O2D2   -1.3154456560073957E+00    1.8015065799359447E+00    9.6934933723843795E+00
HGA3   -1.0829595298654389E+00    1.0749175467512022E+00    1.2219495729208624E+01
HGA3   -1.4690945573951958E-01    2.6062274454539209E+00    1.1962931103258693E+01
HGA3    7.2594869285010866E-01    1.0258859810662804E+00    1.2118349459459889E+01
C331   -1.0017394599460740E+01    5.3377576075316648E+00    1.8099486378032741E+00
C2O3   -8.5647782102678516E+00    5.4870845408312681E+00    2.1195623455062940E+00
O2D2   -8.2366704219222893E+00    6.1587710935225779E+00    3.1282277463358934E+00
O2D2   -7.7577813688138768E+00    4.9381533617346856E+00    1.3286909291616369E+00
HGA3   -1.0265534373726739E+01    4.2569004492877802E+00    1.7955824576447341E+00
HGA3   -1.0210959244237825E+01    5.7688529678287406E+00    8.0713261020532623E-01
HGA3   -1.0632735947202375E+01    5.8566498269626832E+00    2.5725243648616773E+00
     &END COORD
     &KIND C2O3
       ELEMENT C
     &END KIND
     &KIND C331
       ELEMENT C
     &END KIND
     &KIND CD
       ELEMENT Cd
     &END KIND
     &KIND HGA3
       ELEMENT H
     &END KIND
     &KIND O2D2
       ELEMENT O
     &END KIND
     &KIND SE
       ELEMENT Se
     &END KIND
     &TOPOLOGY
       COORD_FILE_FORMAT  OFF
       NUMBER_OF_ATOMS  305
       CONN_FILE_NAME /Users/bvanbeek/Documents/GitHub/qmflows/test/test_files/Cd68Cl26Se55__26_acetate.psf
       CONN_FILE_FORMAT  PSF
       MULTIPLE_UNIT_CELL  1 1 1
       &CENTER_COORDINATES  T
         CENTER_POINT     0.0000000000000000E+00    0.0000000000000000E+00    0.0000000000000000E+00
       &END CENTER_COORDINATES
     &END TOPOLOGY
   &END SUBSYS
 &END FORCE_EVAL
