 # Version information for this restart file 
 # current date 2020-03-19 18:02:15.134
 # current working dir /Users/bvanbeek/Documents/GitHub/qmflows/test/test_files/plams_workdir.008/cp2k_mm_md
 # Program compiled at                             Fri Apr 19 11:24:34 CEST 2019
 # Program compiled on                                             192.168.1.124
 # Program compiled for                           Darwin-IntelMacintosh-gfortran
 # Source code revision number                                         svn:18464
 &GLOBAL
   PRINT_LEVEL  LOW
   PROJECT_NAME cp2k
   RUN_TYPE  MD
 &END GLOBAL
 &MOTION
   &MD
     ENSEMBLE  NVT
     STEPS  1000
     TIMESTEP     9.9999999999999989E-01
     STEP_START_VAL  960
     TIME_START_VAL     9.5999999999999091E+02
     ECONS_START_VAL    -1.5079642989833326E+01
     TEMPERATURE     3.0000000000000000E+02
     &THERMOSTAT
       TYPE  CSVR
       &CSVR
         TIMECON     1.2499999999999998E+03
         &THERMOSTAT_ENERGY
               2.0935576815662360E-01
         &END THERMOSTAT_ENERGY
         &RNG_INIT
Wiener process for Thermostat # 1        1 F T F   2.9874761924900589E-01        2597511409.0        1163073292.0        4163188432.0        4276659052.0        2418700574.0        1527147152.0             12345.0             12345.0             12345.0             12345.0             12345.0             12345.0             12345.0             12345.0             12345.0             12345.0             12345.0             12345.0
         &END RNG_INIT
       &END CSVR
     &END THERMOSTAT
     &AVERAGES  T
       &RESTART_AVERAGES
         ITIMES_START  1
         AVECPU     3.6505374999736266E-02
         AVEHUGONIOT     0.0000000000000000E+00
         AVETEMP_BARO     0.0000000000000000E+00
         AVEPOT    -1.5956368038259626E+01
         AVEKIN     7.7916278436931852E-01
         AVETEMP     5.4134181274653247E+02
         AVEKIN_QM     0.0000000000000000E+00
         AVETEMP_QM     0.0000000000000000E+00
         AVEVOL     8.4354182288623741E+05
         AVECELL_A     9.4486306644281683E+01
         AVECELL_B     9.4486306644281683E+01
         AVECELL_C     9.4486306644281683E+01
         AVEALPHA     9.0000000000000099E+01
         AVEBETA     9.0000000000000099E+01
         AVEGAMMA     9.0000000000000099E+01
         AVE_ECONS     6.4107796469109279E-01
         AVE_PRESS     0.0000000000000000E+00
         AVE_PXX     0.0000000000000000E+00
       &END RESTART_AVERAGES
     &END AVERAGES
   &END MD
 &END MOTION
 &FORCE_EVAL
   METHOD  FIST
   &MM
     &FORCEFIELD
       PARMTYPE  CHM
       PARM_FILE_NAME /Users/bvanbeek/Documents/GitHub/qmflows/test/test_files/Cd68Cl26Se55__26_acetate.prm
       VDW_SCALE14     1.0000000000000000E+00
       EI_SCALE14     1.0000000000000000E+00
       SHIFT_CUTOFF  T
       DO_NONBONDED  T
       IGNORE_MISSING_CRITICAL_PARAMS  T
       &SPLINE
         R0_NB     2.5000000000000000E-01
       &END SPLINE
       &NONBONDED
         &LENNARD-JONES
           ATOMS Cd C2O3
           EPSILON     7.7847969578400509E+01
           SIGMA     2.9841000000000002E+00
         &END LENNARD-JONES
         &LENNARD-JONES
           ATOMS Cd C331
           EPSILON     7.7847969578400509E+01
           SIGMA     2.9841000000000002E+00
         &END LENNARD-JONES
         &LENNARD-JONES
           ATOMS Cd Cd
           EPSILON     3.7288523243435542E+01
           SIGMA     1.2340000000000000E+00
         &END LENNARD-JONES
         &LENNARD-JONES
           ATOMS Cd HGA3
           EPSILON     5.0422537503269112E+01
           SIGMA     2.5541999999999998E+00
         &END LENNARD-JONES
         &LENNARD-JONES
           ATOMS Cd O2D2
           EPSILON     2.2056086015651550E+02
           SIGMA     2.4710000000000001E+00
         &END LENNARD-JONES
         &LENNARD-JONES
           ATOMS Cd Se
           EPSILON     1.8312137123193244E+02
           SIGMA     2.9399999999999999E+00
         &END LENNARD-JONES
         &LENNARD-JONES
           ATOMS Se C2O3
           EPSILON     8.7962670215283850E+01
           SIGMA     3.5884999999999998E+00
         &END LENNARD-JONES
         &LENNARD-JONES
           ATOMS Se C331
           EPSILON     8.7962670215283850E+01
           SIGMA     3.5884999999999998E+00
         &END LENNARD-JONES
         &LENNARD-JONES
           ATOMS Se HGA3
           EPSILON     5.6964383686327977E+01
           SIGMA     3.1587000000000001E+00
         &END LENNARD-JONES
         &LENNARD-JONES
           ATOMS Se O2D2
           EPSILON     1.9404122216826917E+02
           SIGMA     3.5259999999999998E+00
         &END LENNARD-JONES
         &LENNARD-JONES
           ATOMS Se Se
           EPSILON     5.1328331590154185E+01
           SIGMA     4.8520000000000003E+00
         &END LENNARD-JONES
       &END NONBONDED
       &CHARGE
         ATOM C2O3
         CHARGE     4.5240000000000002E-01
       &END CHARGE
       &CHARGE
         ATOM Cd
         CHARGE     9.7680000000000000E-01
       &END CHARGE
       &CHARGE
         ATOM O2D2
         CHARGE    -4.7039999999999998E-01
       &END CHARGE
       &CHARGE
         ATOM Se
         CHARGE    -9.7680000000000000E-01
       &END CHARGE
     &END FORCEFIELD
     &POISSON
       PERIODIC  NONE
       &EWALD
         EWALD_TYPE  NONE
       &END EWALD
     &END POISSON
     &PRINT
       &FF_INFO  LOW
         SPLINE_INFO  F
         SPLINE_DATA  F
       &END FF_INFO
     &END PRINT
   &END MM
   &SUBSYS
     &CELL
       A     5.0000000000000007E+01    0.0000000000000000E+00    0.0000000000000000E+00
       B     0.0000000000000000E+00    5.0000000000000007E+01    0.0000000000000000E+00
       C     0.0000000000000000E+00    0.0000000000000000E+00    5.0000000000000007E+01
       PERIODIC  NONE
       MULTIPLE_UNIT_CELL  1 1 1
     &END CELL
     &COORD
Cd   -2.6338699520697149E+00   -1.1889546573483152E+00   -4.6484661672210263E+00
Cd   -2.6001881043637280E+00   -4.2859900011403766E+00   -1.1823075523098319E+00
Cd   -5.0224316448142172E+00   -3.6358483912003464E-01   -4.1526050973568840E-01
Cd    8.8504180861564397E-01    8.6830147819632175E-01   -5.2841382164323063E+00
Cd    9.0489030017699246E-01   -1.9125082259357058E+00   -2.0476052638972200E+00
Cd   -1.5156241283746759E+00    2.1249689037697643E+00   -1.5785757418932000E+00
Cd    5.1483974934319321E-01   -5.0688260448390769E+00    1.3458507038024217E+00
Cd   -1.4711124861773452E+00   -1.1239396962593025E+00    1.8662699035929080E+00
Cd   -3.8324435599988589E+00    2.7411779971894483E+00    2.0250051389459176E+00
Cd    4.3932854792771101E+00    1.6658191674910200E-01   -2.0872986531790172E+00
Cd    2.3693831031188490E+00    4.3121968456253468E+00   -2.3234913910303270E+00
Cd    4.5453967410583855E+00   -2.6884240750820361E+00    8.7416560312758029E-01
Cd    2.1080252818263654E+00    1.1943169398410138E+00    1.2033685762556152E+00
Cd   -3.0958268053960941E-01    4.7689957526065969E+00    1.5819696953335303E+00
Cd    2.3132654075783377E+00   -1.3282087784560934E+00    4.5308143089261401E+00
Cd   -2.5866118340814159E-01    2.2037675127913303E+00    4.6967846190827656E+00
Se   -1.1243501894522716E+00   -3.2408176523274492E+00   -3.1615149385042418E+00
Se   -3.5962756707253245E+00    5.7507959176476564E-01   -2.9231214888315944E+00
Se   -3.5887044326522743E+00   -2.0953980463504562E+00    5.8934458870873208E-01
Se    2.3617135862232090E+00   -5.8956535732528204E-01   -3.6123810956957234E+00
Se    5.0454182706980411E-01    3.0113472479805488E+00   -3.5979193489303398E+00
Se    2.2805653404320574E+00   -3.6673649093616603E+00   -1.8713873127861178E-01
Se   -2.0045020136964251E-01    2.0978845594979090E-01   -1.2713730043502566E-01
Se   -2.3142831956115111E+00    3.7972616602632661E+00    1.0592615034954665E-01
Se    1.7592406377649430E-01   -2.9268714151632871E+00    2.9124533047097860E+00
Se   -2.5400822253138262E+00    9.4503120984347744E-01    3.6094042135824154E+00
Se    3.7751457181756640E+00    2.2691576510556266E+00   -5.9334300274970808E-01
Se    3.8763679180725150E+00   -6.7422195607449620E-01    2.6120850937987816E+00
Se    1.4253320413956989E+00    3.1238259938638495E+00    2.7785096157326135E+00
Cd   -4.4680152916060853E+00   -4.3604348008861367E+00   -6.9714256930873537E+00
Cd   -6.2132998371669164E+00   -5.0282982969182333E-01   -6.7564143060165609E+00
Cd   -4.0923256335835303E+00   -7.2713118897185725E+00   -3.6680440330353052E+00
Cd   -5.9231974464599251E+00   -3.5916192955782393E+00   -3.1626612991329659E+00
Cd   -8.5728311140965410E+00    6.6045429471198858E-01   -2.8662369612220759E+00
Cd   -6.2852900684406032E+00   -6.5681337642765021E+00   -1.9172213890701714E-01
Cd   -8.8550351942432037E+00   -2.6634680476828203E+00    3.8239747181847167E-01
Cd   -7.8892493767599003E-01   -2.5511235376432562E+00   -7.9113663096341469E+00
Cd   -2.9332508716544345E+00    1.6698584339461913E+00   -7.5758485536771065E+00
Cd   -6.9958015002564122E-01   -5.3222494440918950E+00   -4.8549829613082300E+00
Cd   -5.2047877996990399E+00    2.9369977837762553E+00   -4.1767780070469005E+00
Cd   -6.4362330317102578E-01   -8.1300250884360654E+00   -1.1494780517032606E+00
Cd   -7.4032230958860152E+00    3.0776646911264889E+00   -5.7468076619274855E-01
Cd   -3.3429564532577900E+00   -7.1720830659098009E+00    2.4780588260938385E+00
Cd   -5.9967030011802445E+00   -3.4378985411293006E+00    2.7764095996796447E+00
Cd   -7.1680402217746044E+00    5.4771861827875756E-01    3.2332600608180067E+00
Cd    2.9137124906284719E+00   -3.6901732075330101E-01   -8.0441084081977898E+00
Cd    5.3787601519222616E-01    3.3457267798624537E+00   -8.4913369263685574E+00
Cd    3.3928913652343895E+00   -3.1342240755858084E+00   -5.6324941824168651E+00
Cd   -1.2478096864977102E+00    4.9340577896507565E+00   -5.0097714560892701E+00
Cd    3.2623949536218824E+00   -6.4036488800103735E+00   -2.7341123957286309E+00
Cd   -4.1289734825948834E+00    5.9413954924819414E+00   -1.2606293344615718E+00
Cd    2.7053385935312058E+00   -8.6018370789551266E+00    1.1798489873036540E+00
Cd   -6.2455441983815660E+00    5.8659709649253040E+00    2.1690386284915215E+00
Cd    3.3183242569936705E-01   -7.6742938618845580E+00    4.9341950026583419E+00
Cd   -2.0328067875558689E+00   -4.1896372989678561E+00    5.3780567363253038E+00
Cd   -4.1117775664908347E+00   -4.7225249448055473E-01    6.1494406857778809E+00
Cd   -6.2138684459469138E+00    3.2620550604698679E+00    5.7372914948748175E+00
Cd    7.0448571765874055E+00   -9.7242358301570009E-01   -5.6176120168510719E+00
Cd    4.5105028643163534E+00    3.0469285925896079E+00   -5.1621269815880702E+00
Cd    1.8119493300402201E+00    6.9487784363218648E+00   -5.1024238961177195E+00
Cd    6.7826489870988542E+00   -3.5944091874286679E+00   -2.8423296159076301E+00
Cd   -1.1511980207613937E-01    8.1450589685773380E+00   -1.7593103820357969E+00
Cd    6.4847212822272891E+00   -6.1382919129871851E+00   -1.8647681987270359E-01
Cd   -2.5630904935432866E+00    8.9371332751577395E+00    1.6739193645431620E+00
Cd    3.4775449779451741E+00   -4.5339371137951714E+00    3.3219617295246051E+00
Cd   -2.4743611441812283E+00    5.0261684218507279E+00    4.7644072596220006E+00
Cd    1.6898170996186284E+00   -4.1850615176160870E+00    7.5175676119148322E+00
Cd    8.5254468611174070E-02   -6.2702993904094861E-01    8.3397949113421976E+00
Cd   -2.4387672895121941E+00    2.4960269131112187E+00    8.3670266230335226E+00
Cd    8.3666931782352201E+00    2.3489110015867145E+00   -2.7974949144211307E+00
Cd    5.8960990750863917E+00    6.5194180831213764E+00   -2.6882799104808184E+00
Cd    8.3589394423535825E+00   -2.4781000342643408E-01   -1.6422602193912814E-02
Cd    6.1316658054933084E+00    3.6795089881338963E+00    4.3930788980774771E-01
Cd    3.5438654096078808E+00    7.4087067254975842E+00    9.9180058678488314E-01
Cd    7.9155674380525545E+00   -3.4417158641344505E+00    3.2677059458410067E+00
Cd    5.9708137188408399E+00    8.1665150884205695E-01    3.7430729837820818E+00
Cd    3.9660309769369322E+00    4.4508614368080925E+00    4.2087172693312871E+00
Cd    8.8950210020053400E-01    7.8676381106086568E+00    4.1982717378864534E+00
Cd    5.3862901289035330E+00   -1.6112206211922955E+00    6.7792629158582720E+00
Cd    3.5124900990699870E+00    2.3907202037827253E+00    7.7586919021804164E+00
Cd    8.8047668605691798E-01    5.3899260437136789E+00    7.0944590692919824E+00
Se   -3.1423938531812907E+00   -6.2505591273868211E+00   -5.9214954485810125E+00
Se   -5.0692366093039549E+00   -2.4729200337452113E+00   -5.3487285287444060E+00
Se   -7.0644190109022080E+00    1.1591122581075297E+00   -4.8953639660871611E+00
Se   -4.6154433954688718E+00   -5.3715211537676826E+00   -1.9557237308907836E+00
Se   -7.4232446849625546E+00   -1.7369409625423202E+00   -1.5680735603903790E+00
Se   -7.7000251499826078E+00   -4.7727729360962483E+00    1.1608038980622712E+00
Se    1.0347541359124668E+00   -3.6979607685692213E+00   -6.3936693291691409E+00
Se   -1.0985163668089795E+00   -1.6524547049155844E-01   -6.7322263878316821E+00
Se   -3.3507561812650799E+00    3.5872024723495830E+00   -5.9434972509839543E+00
Se    7.1525034161386580E-01   -6.9853918635105874E+00   -3.0889075856853592E+00
Se   -5.8836298514554697E+00    4.3775126514004814E+00   -2.1150666674606251E+00
Se   -1.4495387589719950E+00   -6.4255431015005859E+00    4.7102698976870783E-01
Se   -6.0199926582078946E+00    1.6557269918097446E+00    1.0722886782570105E+00
Se   -3.9983202826028070E+00   -5.1026804281576457E+00    3.9555783807587352E+00
Se   -6.0234825297322789E+00   -1.4613860384974158E+00    4.5743057301942773E+00
Se    4.9314614522786275E+00   -1.6090848221304617E+00   -7.1510225308596000E+00
Se    2.4090232629932009E+00    2.0562851857802622E+00   -7.2628941282260344E+00
Se    5.0936123247698328E-01    5.8489717210279935E+00   -6.9099904783839436E+00
Se    4.7012844009832842E+00   -4.8041797980348058E+00   -4.1460698790511286E+00
Se   -1.8083503595479247E+00    6.7338669863713596E+00   -3.0663082304802258E+00
Se    4.3427684984862571E+00   -7.6339142242464222E+00   -6.3834834433799037E-01
Se   -4.7643710059835680E+00    7.4927975975175469E+00    8.6473037126299346E-01
Se    2.0757442411387479E+00   -6.7683757818566530E+00    3.1784209711711600E+00
Se   -4.9134045408652742E+00    4.5545281473357697E+00    3.9294974700347582E+00
Se   -2.2586874460487377E-01   -5.6679711905297321E+00    6.6495240704551568E+00
Se   -1.7756346725646373E+00   -1.7729624079483806E+00    6.5863904498206312E+00
Se   -4.6021298985017678E+00    1.9746573166040988E+00    7.1584392535533965E+00
Se    6.4485578330678814E+00    1.2357011839548335E+00   -4.3705943424512821E+00
Se    4.0513030759745066E+00    5.3253764384827296E+00   -4.1028539870347522E+00
Se    5.9530983632074461E+00   -1.6820619669088781E+00   -1.1301665761266382E+00
Se    1.9850481569640432E+00    6.3914394368661620E+00   -6.7051099244682233E-01
Se    5.7890189644173731E+00   -4.9195441993460927E+00    2.1707872569855629E+00
Se   -1.2256570827245867E+00    6.9471750543277926E+00    2.9256366809096996E+00
Se    3.4174191868535813E+00   -3.3121566675987277E+00    5.9227235152223461E+00
Se    1.4154874794411099E+00    4.8171759897720146E-01    6.2938941101330750E+00
Se   -1.0332157530578880E+00    3.7626368342971714E+00    6.5186147579060245E+00
Se    7.2384204990183454E+00    4.4379739918692405E+00   -1.9573386594947444E+00
Se    7.2339445189818123E+00    1.6871988305844792E+00    1.7235412816779092E+00
Se    5.0783940105188998E+00    5.6369153698106098E+00    2.0186570134047814E+00
Se    7.4275634875750036E+00   -2.1251812660413840E+00    5.3252971793692261E+00
Se    4.6927165516311522E+00    2.3680242515695471E+00    5.4812182852504119E+00
Se    2.4656514828914804E+00    6.3175965067265674E+00    5.4677539724329103E+00
C331   -2.0865940970732901E+00    9.2198696515100131E+00    6.5979937503021056E+00
C2O3   -2.0424557050720527E+00    7.8105772920481975E+00    6.4031203300105810E+00
O2D2   -8.5623302522130640E-01    7.4372843577143000E+00    6.7310286658732608E+00
O2D2   -3.0297266642745493E+00    7.1588328728783512E+00    6.0444597120719239E+00
HGA3   -1.9876991606415395E+00    9.4730302877324863E+00    7.7163918659191912E+00
HGA3   -3.0625663593957935E+00    9.5803591683315759E+00    6.2117457247602825E+00
HGA3   -1.1712086709041487E+00    9.6965390838974095E+00    6.2034762222031050E+00
C331    2.9486811611588588E+00    1.0709177527812683E+01   -3.3471092038151893E+00
C2O3    2.3235835612293094E+00    9.4306069581717367E+00   -3.7263664417177411E+00
O2D2    3.1376420084360639E+00    8.8286117920927722E+00   -4.4938611141143436E+00
O2D2    1.2533790860487191E+00    8.9653397562109589E+00   -3.3454520628608564E+00
HGA3    3.5540436449674222E+00    1.1173748518338286E+01   -4.1521989649017588E+00
HGA3    3.6034147139759192E+00    1.0648821316617489E+01   -2.4432871965548091E+00
HGA3    2.2397953312247463E+00    1.1501688565311404E+01   -3.1284547932324265E+00
C331   -5.0579918885880586E+00   -4.7380198082551617E-01   -1.0554502599965767E+01
C2O3   -5.4869516084491181E+00   -7.6334072134228770E-02   -9.2399052957385948E+00
O2D2   -6.7502549870799546E+00   -1.4598874219617500E-01   -8.9166853329770817E+00
O2D2   -4.5197782669657078E+00    1.2389583946403843E-01   -8.5192972591635421E+00
HGA3   -5.0294482063694872E+00    4.5694834091133818E-01   -1.1139399137038090E+01
HGA3   -5.6783373139698687E+00   -1.2294945045757921E+00   -1.1087732384039882E+01
HGA3   -4.0077049932762394E+00   -9.2359234864777184E-01   -1.0428946854398745E+01
C331   -1.2735248653890090E+00   -4.1238940461663525E+00    1.0000029495487139E+01
C2O3   -3.0727924431540027E-01   -2.9366390832655274E+00    1.0015194267944397E+01
O2D2   -9.6612248781701759E-01   -1.8279667277214338E+00    1.0229148172461649E+01
O2D2    8.7135255865915284E-01   -2.9885352620299050E+00    9.6139665658344331E+00
HGA3   -1.2688564510963125E+00   -4.4837144721984110E+00    8.9476584728090494E+00
HGA3   -2.3280174346811582E+00   -3.8245930786253042E+00    1.0288411466053232E+01
HGA3   -8.4993877196617751E-01   -4.9597415574890915E+00    1.0656722796793415E+01
C331   -9.0233319262184750E+00   -6.4557537589661429E+00   -5.1571696582629540E+00
C2O3   -7.7293377041100015E+00   -6.0496603610850457E+00   -4.5066232732223819E+00
O2D2   -6.9731006097138337E+00   -7.0360468815093480E+00   -4.1340084733433704E+00
O2D2   -7.5824176186220758E+00   -4.8323425490445358E+00   -4.3536029606141504E+00
HGA3   -8.8044057334212571E+00   -7.0466371421107992E+00   -6.0571368082980177E+00
HGA3   -9.5679397622352074E+00   -5.5947995907961472E+00   -5.4398508666806213E+00
HGA3   -9.6164451661165220E+00   -6.9726531278537554E+00   -4.4672067354992997E+00
C331    1.1980372818801142E+01   -1.8008901673351585E+00    1.8591628791496078E+00
C2O3    1.0587096562146343E+01   -2.4312871113212884E+00    1.7917730594877592E+00
O2D2    1.0432810232244435E+01   -3.5253992868452451E+00    2.4892147590267326E+00
O2D2    9.6452452883473079E+00   -1.9105248251098019E+00    1.1882652291919009E+00
HGA3    1.2601241840439060E+01   -2.3318103240788144E+00    1.0887126719867373E+00
HGA3    1.2299412521112554E+01   -2.1244866713996906E+00    2.8625966548015414E+00
HGA3    1.1944809969315680E+01   -6.2089079599551533E-01    1.7929699215731194E+00
C331   -1.0722584501749157E+01    3.0275294437406779E+00    4.4833143356426000E+00
C2O3   -9.2868814962510520E+00    2.5405561747576448E+00    4.3795067093414302E+00
O2D2   -8.5643853039321751E+00    2.4416500689966139E+00    5.4227815811464746E+00
O2D2   -8.9380905893439291E+00    2.1540688643051449E+00    3.2381634227249805E+00
HGA3   -1.1412110997841252E+01    2.2259159098035268E+00    4.2010501463793419E+00
HGA3   -1.0819427575008651E+01    3.9160793619500627E+00    3.8113640836581619E+00
HGA3   -1.0852056134241291E+01    3.3296076031789390E+00    5.5229495988887400E+00
C331    2.0851019092795293E+00    1.1439413453462533E+01    2.2031595964899169E+00
C2O3    1.6867716460730453E+00    1.0063030455289653E+01    2.5373131747008744E+00
O2D2    4.6479174599480322E-01    1.0045319390782760E+01    2.9525741727809631E+00
O2D2    2.3489283048417540E+00    9.0452511244646701E+00    2.4223867795071286E+00
HGA3    1.4951465481352224E+00    1.2013819116552156E+01    1.4860520449541026E+00
HGA3    3.1582616084964013E+00    1.1357739130103166E+01    1.8835790914026602E+00
HGA3    2.0221531933009942E+00    1.1964919814026269E+01    3.2010052120884227E+00
C331   -2.9393273453053559E+00   -1.0553542232838447E+01    3.6186788017678979E+00
C2O3   -1.9063045933570801E+00   -9.5114187009570248E+00    3.9719939489357565E+00
O2D2   -6.8353477858096101E-01   -9.9215634850664713E+00    4.0869717465481425E+00
O2D2   -2.2877854973020626E+00   -8.3460429091451225E+00    4.0423636170980348E+00
HGA3   -3.9904558373901025E+00   -1.0204572344157871E+01    3.4654246342694037E+00
HGA3   -3.0078074402881620E+00   -1.1343348771105088E+01    4.3901756175682447E+00
HGA3   -2.5274676279248967E+00   -1.1029454529184564E+01    2.6807273173224124E+00
C331    2.3828865884609152E+00    5.0105887054631664E+00    1.0985453185000802E+01
C2O3    2.5781177788128860E+00    4.4069917159467966E+00    9.6154228016972034E+00
O2D2    1.5274716340526329E+00    4.1831029708389176E+00    8.8925552093938709E+00
O2D2    3.7439373577136430E+00    4.2650483700311774E+00    9.2633982088763247E+00
HGA3    1.3204116943186850E+00    5.3404114236870113E+00    1.1157259670534565E+01
HGA3    3.0784993856102894E+00    5.7925769099617890E+00    1.1228593550458100E+01
HGA3    2.5729814356156440E+00    4.1810878752316292E+00    1.1690641741314993E+01
C331   -1.4099728800625055E+00    1.1984661405099883E+01   -9.0485296279625327E-01
C2O3   -1.3649793238488288E+00    1.0677238302033784E+01   -3.3016378140793179E-01
O2D2   -3.1476233074811283E-01    1.0005794948428273E+01   -3.9108926822820533E-01
O2D2   -2.5079534597942881E+00    1.0252458163186311E+01    8.7347985609295218E-03
HGA3   -2.3129022606405409E+00    1.2191644310269441E+01   -1.5898258488877797E+00
HGA3   -5.0019276357625175E-01    1.2112718755666231E+01   -1.5281331361313908E+00
HGA3   -1.2271739375351627E+00    1.2694528400882298E+01   -4.3455373525185942E-02
C331   -3.2808253985826794E+00   -4.3556471649343473E+00   -1.1350575529168088E+01
C2O3   -3.4528348815422762E+00   -3.9096370999942529E+00   -9.8571994613352167E+00
O2D2   -4.3853466967798660E+00   -4.3936978030223983E+00   -9.2613342700217594E+00
O2D2   -2.6831900734205933E+00   -3.0991509134841588E+00   -9.3258692939633452E+00
HGA3   -3.8013256942482454E+00   -3.7046284990013740E+00   -1.2055775533804493E+01
HGA3   -3.5427506050696027E+00   -5.3645061253467938E+00   -1.1623331715631746E+01
HGA3   -2.1663523726172729E+00   -4.2085117415989046E+00   -1.1578755711632814E+01
C331   -6.7841327841077419E+00   -9.9811164831321779E+00    1.2400033825550538E+00
C2O3   -5.8832178083534448E+00   -8.9743147850551797E+00    6.5054502077877541E-01
O2D2   -5.3077442671708575E+00   -8.2548749871041807E+00    1.5501403276202523E+00
O2D2   -5.8181929669450207E+00   -8.7503272670201255E+00   -5.8539559208034864E-01
HGA3   -6.2233151579106156E+00   -1.0833836950113012E+01    9.1660983754342096E-01
HGA3   -7.8078769710311748E+00   -9.8190480559550597E+00    8.6307224153570106E-01
HGA3   -6.7826232378203253E+00   -9.8316125257830524E+00    2.3165083738539818E+00
C331   -1.0185913647615498E+01   -1.6791212396283848E+00    4.2491849078325536E+00
C2O3   -9.7253489168797760E+00   -1.5910716040259676E+00    2.8312188206644087E+00
O2D2   -1.0397308809116161E+01   -2.2706479503036059E+00    2.0171431139996110E+00
O2D2   -8.7924692989060773E+00   -8.5532289774502768E-01    2.5216481385144736E+00
HGA3   -1.0908066640765750E+01   -2.4961834505957010E+00    4.3146595953231888E+00
HGA3   -1.0673945825014702E+01   -7.5575553151757147E-01    4.6417030192431916E+00
HGA3   -9.2998885615399676E+00   -1.9623487739224992E+00    4.9007444885949614E+00
C331    4.7989529339762749E+00   -2.0827385977017387E-01    1.0897499464989949E+01
C2O3    4.5437128630326136E+00   -5.0280692730964460E-01    9.4301827292062175E+00
O2D2    4.5111806701186525E+00    5.6856166104663541E-01    8.7353850546583836E+00
O2D2    4.3676928936705686E+00   -1.6821442115617988E+00    9.1347803800086087E+00
HGA3    5.7888047407462961E+00    2.2586991663809800E-01    1.1069174720994491E+01
HGA3    4.7086897952922984E+00   -1.1855391224862670E+00    1.1388333780073122E+01
HGA3    4.0782758649237509E+00    5.6880614032812571E-01    1.1220058076479310E+01
C331    9.7055679418062510E+00   -6.1539450533860371E+00   -2.8870397052338919E+00
C2O3    8.8544230718767043E+00   -6.0184177657327282E+00   -1.6422342890543991E+00
O2D2    8.2056257296386139E+00   -4.8951615414868277E+00   -1.4572186810127570E+00
O2D2    8.7202259417204715E+00   -6.9777120352024342E+00   -9.5279893552626316E-01
HGA3    9.0623006217485180E+00   -5.7471970005113517E+00   -3.6967883597527273E+00
HGA3    9.9301516515968906E+00   -7.2001500724424110E+00   -3.0219571479824214E+00
HGA3    1.0570716695985148E+01   -5.4404073247363582E+00   -2.8769595917274966E+00
C331   -1.5266835972252318E-01   -1.1804016929240341E+01    8.2900335931871283E-01
C2O3    8.4827294182122248E-01   -1.0783762307603030E+01    2.7530388392604216E-01
O2D2    2.0248009297830731E+00   -1.1335109112853049E+01    1.7713063215602898E-01
O2D2    5.9776990861860391E-01   -9.5653261005420731E+00    1.1339884566998058E-01
HGA3    2.6167232723961231E-01   -1.2815517730602956E+01    1.0971131561133998E+00
HGA3   -9.9915276740115866E-01   -1.2012192305313144E+01    1.3770445813265236E-01
HGA3   -5.3097265692804607E-01   -1.1321896680116614E+01    1.7528381680942551E+00
C331    1.0309252113715511E+01   -2.3983610310055146E+00   -2.8907945299633457E+00
C2O3    9.1347273479036115E+00   -1.5427470348152854E+00   -3.1160871229198563E+00
O2D2    9.1593010306027551E+00   -5.6109106566325562E-01   -2.3311125262822858E+00
O2D2    8.3042642222364833E+00   -1.8554839313857852E+00   -4.0075859164316672E+00
HGA3    1.0795730294249507E+01   -2.0440576132149766E+00   -1.9873337371055539E+00
HGA3    1.1079334624819765E+01   -2.1219149397560408E+00   -3.6383195707010798E+00
HGA3    9.9827562163646348E+00   -3.4432883833057155E+00   -2.8480444381155743E+00
C331    6.9770463850146998E+00    1.0006095271619566E+01   -5.9637192214762803E-02
C2O3    6.4681248627017256E+00    8.7409278499712197E+00   -7.7880523531807089E-01
O2D2    5.2245345716622102E+00    8.4317379011206626E+00   -5.2286600685468387E-01
O2D2    7.2235779423084301E+00    8.1139268984720623E+00   -1.5507719247861631E+00
HGA3    6.2954860454976682E+00    1.0323995059596980E+01    8.1980578001333593E-01
HGA3    6.9294148520041610E+00    1.0777629117064674E+01   -7.8498302124434061E-01
HGA3    8.0262319273864851E+00    9.7582006737147164E+00    2.7714934290200177E-01
C331   -1.1516004722301155E+01    1.5860209102802134E+00    2.6843514191426182E-01
C2O3   -1.0418248845941200E+01    1.3164887817349527E+00   -7.1420995751510707E-01
O2D2   -9.3656449766748988E+00    2.0563325105126435E+00   -5.4839252105659075E-01
O2D2   -1.0545335813563282E+01    4.9421941304828171E-01   -1.5816241014877195E+00
HGA3   -1.1788629002552451E+01    2.6496387313621574E+00    3.3611795735873057E-01
HGA3   -1.1028720912626692E+01    1.4089817123258348E+00    1.2352155570746257E+00
HGA3   -1.2381025067038188E+01    9.4564651280198309E-01    1.0886038784465255E-01
C331   -3.4660262661521055E+00   -1.1345962297776424E+01   -2.8304957654044127E+00
C2O3   -3.0643406679260314E+00   -9.8744134810231383E+00   -2.7625762682140915E+00
O2D2   -2.9823662546042220E+00   -9.5957475760323003E+00   -1.5288828129548779E+00
O2D2   -2.7844758055458589E+00   -9.0467632340986306E+00   -3.6416120722358625E+00
HGA3   -3.7604293285159098E+00   -1.1824953797024014E+01   -1.8347660640251868E+00
HGA3   -2.5666743368968303E+00   -1.1856364613807489E+01   -3.2103312377986977E+00
HGA3   -4.2742329486142703E+00   -1.1333820643299935E+01   -3.5485957674926940E+00
C331   -1.7209969596397658E+00    1.0246295486575014E+00   -1.1456139180898347E+01
C2O3   -1.2634592713402411E+00    2.1410413055702402E+00   -1.0561081639922905E+01
O2D2   -3.3183592930786709E-01    2.9327905119059254E+00   -1.0958999879499681E+01
O2D2   -2.0251816204302906E+00    2.3067755966694818E+00   -9.5909010392435139E+00
HGA3   -2.7868209497571508E+00    1.0468255408530642E+00   -1.1758924032252738E+01
HGA3   -1.4402371834008314E+00    7.6782948130310835E-02   -1.0965751118169711E+01
HGA3   -1.1247316372839131E+00    8.7095512136479070E-01   -1.2386204506039860E+01
C331    1.9871575921089684E+00   -1.8886153315170449E+00   -1.1987223325511717E+01
C2O3    1.2504326956462253E+00   -1.9931449603916542E+00   -1.0685158095298775E+01
O2D2    1.7176291577075622E+00   -1.3077798167275421E+00   -9.7262844263249288E+00
O2D2    2.7035172749663039E-01   -2.7813178952102611E+00   -1.0626291852673855E+01
HGA3    2.9801201524307031E+00   -2.3761665311601408E+00   -1.2034573643171743E+01
HGA3    2.1282622873601817E+00   -8.0325050722275648E-01   -1.2198706702769158E+01
HGA3    1.3592377297863298E+00   -2.4223799086982130E+00   -1.2791778417302840E+01
C331    1.2722081288447249E+01    8.4222701838064096E-01   -1.5179320273831662E+00
C2O3    1.1359928123752157E+01    1.4241832400836520E+00   -1.4678531324308417E+00
O2D2    1.0628052300213602E+01    1.2898928246678683E+00   -3.8346626713295356E-01
O2D2    1.1141895659598239E+01    1.9799978281628137E+00   -2.5012617376919626E+00
HGA3    1.2875186731831967E+01    6.1038000674810577E-02   -7.4606772288653578E-01
HGA3    1.3507187992331335E+01    1.5660481086482112E+00   -1.5102544275240783E+00
HGA3    1.2731214221309758E+01    3.2868172564099341E-01   -2.5223224684123324E+00
C331   -4.9223964551427785E-01    1.3042752470817049E+00    1.1793450207833457E+01
C2O3   -5.7070363331243246E-01    1.9116772912380848E+00    1.0419377520401762E+01
O2D2    2.8038438718022618E-01    1.2607624894942451E+00    9.6677276332126212E+00