 # Version information for this restart file 
 # current date 2020-03-19 18:02:01.444
 # current working dir /Users/bvanbeek/Documents/GitHub/qmflows/test/test_files/plams_workdir.008/cp2k_mm_md
 # Program compiled at                             Fri Apr 19 11:24:34 CEST 2019
 # Program compiled on                                             192.168.1.124
 # Program compiled for                           Darwin-IntelMacintosh-gfortran
 # Source code revision number                                         svn:18464
 &GLOBAL
   PRINT_LEVEL  LOW
   PROJECT_NAME cp2k
   RUN_TYPE  MD
 &END GLOBAL
 &MOTION
   &MD
     ENSEMBLE  NVT
     STEPS  1000
     TIMESTEP     9.9999999999999989E-01
     STEP_START_VAL  500
     TIME_START_VAL     4.9999999999999591E+02
     ECONS_START_VAL    -1.5079642989833326E+01
     TEMPERATURE     3.0000000000000000E+02
     &THERMOSTAT
       TYPE  CSVR
       &CSVR
         TIMECON     1.2499999999999998E+03
         &THERMOSTAT_ENERGY
               9.5303416955628828E-02
         &END THERMOSTAT_ENERGY
         &RNG_INIT
Wiener process for Thermostat # 1        1 F T F  -9.3053205607358958E-01        1591171387.0        1731617748.0        3589587708.0        1061622051.0        1093034304.0        3882545113.0             12345.0             12345.0             12345.0             12345.0             12345.0             12345.0             12345.0             12345.0             12345.0             12345.0             12345.0             12345.0
         &END RNG_INIT
       &END CSVR
     &END THERMOSTAT
     &AVERAGES  T
       &RESTART_AVERAGES
         ITIMES_START  1
         AVECPU     4.2710347999818606E-02
         AVEHUGONIOT     0.0000000000000000E+00
         AVETEMP_BARO     0.0000000000000000E+00
         AVEPOT    -1.5897228100495530E+01
         AVEKIN     7.6733248332435056E-01
         AVETEMP     5.3312243068479415E+02
         AVEKIN_QM     0.0000000000000000E+00
         AVETEMP_QM     0.0000000000000000E+00
         AVEVOL     8.4354182288624451E+05
         AVECELL_A     9.4486306644282564E+01
         AVECELL_B     9.4486306644282564E+01
         AVECELL_C     9.4486306644282564E+01
         AVEALPHA     9.0000000000000199E+01
         AVEBETA     9.0000000000000199E+01
         AVEGAMMA     9.0000000000000199E+01
         AVE_ECONS     5.9708997329234947E-01
         AVE_PRESS     0.0000000000000000E+00
         AVE_PXX     0.0000000000000000E+00
       &END RESTART_AVERAGES
     &END AVERAGES
   &END MD
 &END MOTION
 &FORCE_EVAL
   METHOD  FIST
   &MM
     &FORCEFIELD
       PARMTYPE  CHM
       PARM_FILE_NAME /Users/bvanbeek/Documents/GitHub/qmflows/test/test_files/Cd68Cl26Se55__26_acetate.prm
       VDW_SCALE14     1.0000000000000000E+00
       EI_SCALE14     1.0000000000000000E+00
       SHIFT_CUTOFF  T
       DO_NONBONDED  T
       IGNORE_MISSING_CRITICAL_PARAMS  T
       &SPLINE
         R0_NB     2.5000000000000000E-01
       &END SPLINE
       &NONBONDED
         &LENNARD-JONES
           ATOMS Cd C2O3
           EPSILON     7.7847969578400509E+01
           SIGMA     2.9841000000000002E+00
         &END LENNARD-JONES
         &LENNARD-JONES
           ATOMS Cd C331
           EPSILON     7.7847969578400509E+01
           SIGMA     2.9841000000000002E+00
         &END LENNARD-JONES
         &LENNARD-JONES
           ATOMS Cd Cd
           EPSILON     3.7288523243435542E+01
           SIGMA     1.2340000000000000E+00
         &END LENNARD-JONES
         &LENNARD-JONES
           ATOMS Cd HGA3
           EPSILON     5.0422537503269112E+01
           SIGMA     2.5541999999999998E+00
         &END LENNARD-JONES
         &LENNARD-JONES
           ATOMS Cd O2D2
           EPSILON     2.2056086015651550E+02
           SIGMA     2.4710000000000001E+00
         &END LENNARD-JONES
         &LENNARD-JONES
           ATOMS Cd Se
           EPSILON     1.8312137123193244E+02
           SIGMA     2.9399999999999999E+00
         &END LENNARD-JONES
         &LENNARD-JONES
           ATOMS Se C2O3
           EPSILON     8.7962670215283850E+01
           SIGMA     3.5884999999999998E+00
         &END LENNARD-JONES
         &LENNARD-JONES
           ATOMS Se C331
           EPSILON     8.7962670215283850E+01
           SIGMA     3.5884999999999998E+00
         &END LENNARD-JONES
         &LENNARD-JONES
           ATOMS Se HGA3
           EPSILON     5.6964383686327977E+01
           SIGMA     3.1587000000000001E+00
         &END LENNARD-JONES
         &LENNARD-JONES
           ATOMS Se O2D2
           EPSILON     1.9404122216826917E+02
           SIGMA     3.5259999999999998E+00
         &END LENNARD-JONES
         &LENNARD-JONES
           ATOMS Se Se
           EPSILON     5.1328331590154185E+01
           SIGMA     4.8520000000000003E+00
         &END LENNARD-JONES
       &END NONBONDED
       &CHARGE
         ATOM C2O3
         CHARGE     4.5240000000000002E-01
       &END CHARGE
       &CHARGE
         ATOM Cd
         CHARGE     9.7680000000000000E-01
       &END CHARGE
       &CHARGE
         ATOM O2D2
         CHARGE    -4.7039999999999998E-01
       &END CHARGE
       &CHARGE
         ATOM Se
         CHARGE    -9.7680000000000000E-01
       &END CHARGE
     &END FORCEFIELD
     &POISSON
       PERIODIC  NONE
       &EWALD
         EWALD_TYPE  NONE
       &END EWALD
     &END POISSON
     &PRINT
       &FF_INFO  LOW
         SPLINE_INFO  F
         SPLINE_DATA  F
       &END FF_INFO
     &END PRINT
   &END MM
   &SUBSYS
     &CELL
       A     5.0000000000000007E+01    0.0000000000000000E+00    0.0000000000000000E+00
       B     0.0000000000000000E+00    5.0000000000000007E+01    0.0000000000000000E+00
       C     0.0000000000000000E+00    0.0000000000000000E+00    5.0000000000000007E+01
       PERIODIC  NONE
       MULTIPLE_UNIT_CELL  1 1 1
     &END CELL
     &COORD
Cd   -3.0161917656030486E+00   -1.1467045517979721E+00   -4.3899255438241580E+00
Cd   -2.7529733842928144E+00   -4.3767395597242595E+00   -8.8052382224499282E-01
Cd   -5.0725805047946233E+00   -2.7585444442995699E-01   -3.3496836799770324E-01
Cd    7.7249186347632914E-01    1.0034632333489193E+00   -5.0215546905659219E+00
Cd    5.6768223745381707E-01   -1.6083903434093081E+00   -1.8149283510359493E+00
Cd   -1.5566764551139507E+00    2.0676878452662861E+00   -1.2808138491892449E+00
Cd    7.9373811433543862E-01   -4.9284960886350078E+00    1.5702759261299397E+00
Cd   -1.4993166342657933E+00   -9.3351414884471318E-01    2.0809479340162973E+00
Cd   -3.9897764298176988E+00    2.5630957208227643E+00    2.1355670281694632E+00
Cd    4.6098657698317558E+00    1.4173911006339862E-01   -2.5026807242755655E+00
Cd    2.2191913223679274E+00    3.8226985821738353E+00   -1.9697630352422844E+00
Cd    4.7541608706685921E+00   -2.7362289415517500E+00    7.0397283979047331E-01
Cd    2.0021133852805986E+00    1.1154234993369332E+00    1.3761570715340112E+00
Cd    6.3906666023662406E-02    5.1295158400532896E+00    1.3154080178659839E+00
Cd    2.1597674346856053E+00   -1.9617903696674841E+00    4.5937659168477243E+00
Cd   -1.3446468349677018E-01    2.1142893310253634E+00    4.6708238512724289E+00
Se   -1.3971293894365200E+00   -2.9737520011456984E+00   -2.7788248174793777E+00
Se   -3.6945089217231559E+00    8.1676575661864992E-01   -2.5843580341171410E+00
Se   -3.5730743563589327E+00   -2.1723021453219840E+00    8.6154972483325309E-01
Se    2.4230976668807083E+00   -5.1850647902534375E-01   -3.8846079079660965E+00
Se    1.8697245163307658E-01    2.9633317992096688E+00   -3.3027984670076971E+00
Se    2.5739505309291952E+00   -3.7872412933606925E+00   -3.3657710482174669E-01
Se   -3.8350495939131500E-02    1.5534674245924124E-01   -4.7205149570766436E-02
Se   -2.2376247879841955E+00    3.9517885512020459E+00    3.6773015427385264E-01
Se   -4.2524826498479405E-02   -3.0043419030500296E+00    3.2195628799409883E+00
Se   -2.3865502906204892E+00    1.0100578309886206E+00    3.6754789121079590E+00
Se    3.8642316504642493E+00    2.0598240466240401E+00   -1.0287562904842795E+00
Se    3.5598569949595169E+00   -8.6726829316362664E-01    2.5233390755070073E+00
Se    1.2545729003197550E+00    3.2903189724598598E+00    2.7416482478464173E+00
Cd   -4.2876474078730578E+00   -4.6331364308686913E+00   -6.8153039141266945E+00
Cd   -6.0827761770594257E+00   -4.1137970883686198E-01   -6.8106441145084720E+00
Cd   -3.8915294056570695E+00   -7.4986035222123046E+00   -3.2964966360814865E+00
Cd   -6.0029601510759196E+00   -3.8282751541556053E+00   -3.5035247423798643E+00
Cd   -8.7677191241327233E+00    4.0034749348884728E-02   -3.0975736406020240E+00
Cd   -6.4681938926430771E+00   -6.6455350336613757E+00    4.5962292510905428E-01
Cd   -8.7605813082301882E+00   -2.8260321862618505E+00    1.0800289247783923E-01
Cd   -9.5269643737572396E-01   -2.9597387404123472E+00   -7.7053469929371738E+00
Cd   -2.4125813715360613E+00    1.9300522412452386E+00   -8.0835178299087147E+00
Cd   -2.3667275794254541E-01   -5.2318375861357964E+00   -4.5314078329826479E+00
Cd   -4.9389553280831908E+00    2.8433340444660744E+00   -3.7922981225326593E+00
Cd   -2.8652492651155775E-01   -8.0489030579591567E+00   -1.0418551732789196E+00
Cd   -7.7033872870959188E+00    3.6420743855177133E+00    9.5562379738872005E-03
Cd   -3.0029521735796596E+00   -7.4227870892318162E+00    2.5439754730310931E+00
Cd   -5.0938230817926398E+00   -3.2599273222194047E+00    2.9980302598319595E+00
Cd   -8.1356570430561579E+00   -2.0447161388608182E-01    2.5554743399728852E+00
Cd    2.7173257753549018E+00   -2.5904962274926485E-01   -8.5493537809215585E+00
Cd    7.8148844293160102E-01    3.9100670520029315E+00   -8.2751807699569238E+00
Cd    3.2690173005415986E+00   -2.8066688545640632E+00   -5.2331229115156512E+00
Cd   -1.4183013851633119E+00    4.6490400276111030E+00   -4.7930299019050686E+00
Cd    3.1164534891850204E+00   -5.6314542078971366E+00   -2.1295354055361404E+00
Cd   -3.7680641487659949E+00    5.4540595941903423E+00   -1.1424653132733236E+00
Cd    2.9699471807409528E+00   -8.4842066205708697E+00    1.2647671998849457E+00
Cd   -6.1725355820393411E+00    6.2828068646395439E+00    2.2250938826487063E+00
Cd    4.2990217254354329E-01   -7.7667643929541157E+00    4.8588776999930090E+00
Cd   -1.9283890896467437E+00   -3.9020445463782747E+00    5.2411821169546853E+00
Cd   -3.8072365130767047E+00   -3.7990323805781656E-01    5.5632857499718478E+00
Cd   -6.4431082276093994E+00    3.3278671881357433E+00    5.7374226107453818E+00
Cd    6.8773214530035132E+00   -2.9859242808092568E-01   -6.5271135919235315E+00
Cd    4.1437078163206040E+00    2.9437245282983149E+00   -5.4197548665699706E+00
Cd    2.4389171935362381E+00    7.0985880163408979E+00   -5.7565348251352146E+00
Cd    6.8720377922056990E+00   -3.4765627052778805E+00   -3.2265413111220500E+00
Cd   -1.6269160518675940E-01    8.2276769313082809E+00   -2.8356014932644955E+00
Cd    6.7172331764832416E+00   -6.2079530644205168E+00    3.6608357417367932E-01
Cd   -2.1630864805784724E+00    8.6437448529168499E+00    1.5466720954089619E+00
Cd    4.0780429640311775E+00   -5.2990465906192963E+00    4.0777164655465592E+00
Cd   -2.7511848763606213E+00    5.4942640521567023E+00    4.4399558091092013E+00
Cd    1.4751608920015986E+00   -4.4851552392256808E+00    7.9126748938657370E+00
Cd   -8.8459842439616787E-01   -1.4892658474254292E+00    8.6624705569846920E+00
Cd   -2.5888433753247750E+00    2.9939024807547421E+00    8.2822155115970784E+00
Cd    8.0891888389082727E+00    2.4551173464458662E+00   -3.2110609465064863E+00
Cd    6.0924356455831621E+00    6.5724566626637371E+00   -2.6498255400992825E+00
Cd    8.3716739115692533E+00   -4.4050031391986239E-01    3.6109857894684627E-01
Cd    5.9886072403535957E+00    3.6210477637009340E+00    4.2227222301968109E-01
Cd    3.5278384219951837E+00    7.2466242289873968E+00    1.1621861525374670E+00
Cd    8.1223421496474000E+00   -3.1625766361823762E+00    3.3685682465415083E+00
Cd    5.6402319206573752E+00    6.7420148482600550E-01    3.3983028639469270E+00
Cd    3.4646109320108716E+00    4.1545000398850966E+00    3.9488716417242746E+00
Cd    1.1599181517105432E+00    8.1137057400543888E+00    4.3588024463403352E+00
Cd    5.3631599972755248E+00   -1.7611728909761677E+00    6.6914794670621625E+00
Cd    3.7977950472145086E+00    2.5494568704774889E+00    7.7899760920898764E+00
Cd    5.6016098938830960E-01    5.9967757745818808E+00    7.8628523584947860E+00
Se   -2.8159707949909696E+00   -5.9799064904090935E+00   -5.2179393432429766E+00
Se   -5.0879807780247601E+00   -2.3959225524022005E+00   -5.5571430886488455E+00
Se   -7.3464813687289281E+00    9.6088511158151779E-01   -5.1270876462917965E+00
Se   -5.0577188563442315E+00   -5.7300393388286013E+00   -1.6288313196374609E+00
Se   -7.4112278932125886E+00   -1.8820933864404359E+00   -1.9865844900722560E+00
Se   -7.1964842548055659E+00   -4.3109471254191769E+00    1.4898199798219554E+00
Se    1.0086663161220462E+00   -3.8345291922978229E+00   -6.2842225296224692E+00
Se   -1.3435169630801420E+00   -3.2600829077144161E-01   -6.2053676664054240E+00
Se   -3.3429584583012311E+00    3.2426176918824710E+00   -5.9949281968103740E+00
Se    9.8226179947632408E-01   -6.9057585809457374E+00   -2.9697875523262818E+00
Se   -5.8326953606679304E+00    4.0638760863220824E+00   -1.7097412371018206E+00
Se   -1.1582849982305239E+00   -6.3796742350944866E+00    7.0558197254286659E-01
Se   -6.0911671274297827E+00    1.4317792804031559E+00    1.1324320975165472E+00
Se   -3.4705120747556508E+00   -5.3558140487087549E+00    3.8161206852432561E+00
Se   -6.3434027463862401E+00   -1.2603956194143622E+00    4.2371254961123039E+00
Se    4.7994202309915215E+00   -1.4699044937625907E+00   -7.4241945386491377E+00
Se    2.3732320246604481E+00    2.1417369562461492E+00   -7.4922417814607973E+00
Se    2.5245711652749514E-01    5.9315061493972872E+00   -6.4299005656462267E+00
Se    4.7661842660797804E+00   -4.7216708962744613E+00   -4.0323450289459375E+00
Se   -1.9602297374085764E+00    6.5632341866662065E+00   -2.9963620675264622E+00
Se    4.5276057260273914E+00   -7.4898897636557145E+00   -5.7153944552294367E-01
Se   -4.2310953634614199E+00    7.3662637654031755E+00    8.7601310131854204E-01
Se    2.3770095827361191E+00   -6.9023242531110016E+00    3.1802639468733460E+00
Se   -5.2350497232005715E+00    4.7272174482415377E+00    3.9559910842307446E+00
Se   -7.6087335333546960E-02   -5.7734918317354262E+00    6.4284069099906489E+00
Se   -2.3896465264816595E+00   -2.0731345504569432E+00    6.8141619645001059E+00
Se   -4.7806978773149291E+00    2.2837073175669205E+00    7.1592563399333722E+00
Se    6.0633663199381171E+00    1.5368509197271367E+00   -4.7916066994740980E+00
Se    4.1613956051818652E+00    5.2826144407331919E+00   -4.3134512467072961E+00
Se    5.9684020445060346E+00   -1.7324213451886608E+00   -1.5915874620475643E+00
Se    1.5240196478408896E+00    6.2598864644997905E+00   -4.6189386882135580E-01
Se    6.1150764933899255E+00   -4.7011195264217784E+00    2.3787695254583565E+00
Se   -1.1693734217381555E+00    7.2219689928032267E+00    3.3246550005565494E+00
Se    3.6137914486471074E+00   -3.8108375222473940E+00    6.2328331151293126E+00
Se    9.2723666567286900E-01    1.5094183617578158E-01    6.4403380487143336E+00
Se   -1.3132195883672118E+00    4.4309260454510584E+00    6.4967221363857828E+00
Se    7.3182919885284861E+00    4.4435739238240650E+00   -1.7972853350429578E+00
Se    7.2133129150414943E+00    1.3002723048190090E+00    1.4315480224208719E+00
Se    4.9393606626985473E+00    5.2960001664434042E+00    1.9709000317006271E+00
Se    6.8086344010042872E+00   -1.5903913398214151E+00    4.8505264471678933E+00
Se    4.8406722681926180E+00    2.2986083172286049E+00    5.1688209664707836E+00
Se    2.2225678289513224E+00    6.3529607638244219E+00    5.6385588072101918E+00
C331   -2.2917730401905829E+00    9.8953686237915317E+00    8.7316433391690804E+00
C2O3   -1.9002822412527902E+00    8.5580391288056639E+00    8.0493736604091559E+00
O2D2   -7.6856568755710752E-01    7.9254738662769082E+00    8.1366714232461543E+00
O2D2   -2.9012362551340471E+00    8.1091592562029629E+00    7.4590008971578827E+00
HGA3   -3.3894308615309998E+00    9.9275845414133315E+00    8.8399578857155259E+00
HGA3   -1.9338791422446309E+00    1.0803712837097594E+01    8.1597363798875104E+00
HGA3   -1.8747712856563530E+00    9.8785622087351577E+00    9.7897362875319889E+00
C331    2.1900170194584283E+00    1.1113593054502475E+01   -4.4084310626916645E+00
C2O3    2.0414289347033607E+00    9.7261489213339622E+00   -4.8844776116109827E+00
O2D2    2.5519059242332989E+00    9.2818444715920378E+00   -5.9664596739285081E+00
O2D2    1.4381851711665599E+00    9.0540637788866185E+00   -4.0343340692254683E+00
HGA3    2.6300834742264763E+00    1.1759130543285782E+01   -5.1980498199851528E+00
HGA3    2.8894618817461550E+00    1.1125663657186129E+01   -3.5797052614675735E+00
HGA3    1.2341436909147832E+00    1.1554898885209996E+01   -4.0403993352766641E+00
C331   -4.0416144003385979E+00   -1.5450871336981085E+00   -1.0436485144734570E+01
C2O3   -4.4981730815546053E+00   -6.0230080570988775E-01   -9.3013892043213815E+00
O2D2   -5.6523579408639906E+00   -8.2799672139834690E-01   -8.9213770517386735E+00
O2D2   -3.7164727957901116E+00    2.6332645573746699E-01   -8.8333781542682690E+00
HGA3   -3.6215835804939092E+00   -1.0327104957334223E+00   -1.1308268295784391E+01
HGA3   -4.8675620153495984E+00   -2.1194593060088973E+00   -1.0834754751949669E+01
HGA3   -3.2462139584242120E+00   -2.2701929302370472E+00   -1.0039240313360857E+01
C331    1.9207398150192305E+00   -2.7030981659466176E+00    1.1282544578114424E+01
C2O3    1.1105724749095005E+00   -2.9277220844491025E+00    1.0057686745236582E+01
O2D2    4.2656301017038038E-02   -3.5769226247961030E+00    1.0073329067127759E+01
O2D2    1.6053536130470203E+00   -2.4523621094700192E+00    8.9947847149624902E+00
HGA3    2.9452555699396985E+00   -2.3718514446510501E+00    1.0905094085167342E+01
HGA3    2.1565554509885736E+00   -3.6375791747247059E+00    1.1860681446924840E+01
HGA3    1.5918514469633092E+00   -1.8842701058980909E+00    1.1953392582600612E+01
C331   -8.4172165015579328E+00   -6.6533108874820508E+00   -4.9728862956592614E+00
C2O3   -6.9217513785455234E+00   -6.3491924586014248E+00   -4.9626149904370873E+00
O2D2   -6.0796550516778174E+00   -7.1893101601639406E+00   -4.5148835712561670E+00
O2D2   -6.6282121970808792E+00   -5.2658332079421664E+00   -5.4502792363084644E+00
HGA3   -8.7232485883082980E+00   -6.6576074082670607E+00   -6.0004596821939158E+00
HGA3   -9.0033189215342784E+00   -5.8529959117960288E+00   -4.4751963130177712E+00
HGA3   -8.6792553516038726E+00   -7.5934914242089464E+00   -4.4215900509381028E+00
C331    1.1521599820641946E+01   -3.2695599356264742E+00    8.8128793184640708E-01
C2O3    1.0302922622032783E+01   -2.8514559681662277E+00    1.6721651034322316E+00
O2D2    1.0324664705651735E+01   -2.9688473635486274E+00    2.9166062839848181E+00
O2D2    9.3114589231183977E+00   -2.4537633541724686E+00    9.3298097272921243E-01
HGA3    1.1498326560584017E+01   -3.1768354910291765E+00   -2.1301471538658698E-01
HGA3    1.1840856493269129E+01   -4.3291211723136609E+00    1.1782288326782731E+00
HGA3    1.2307610701304318E+01   -2.5978208774512956E+00    1.2245998085803287E+00
C331   -1.0304616028594127E+01    1.6218809316875600E+00    4.2106829444703839E+00
C2O3   -9.0513768096358032E+00    2.3059903162940381E+00    3.7336223048517847E+00
O2D2   -8.2620143088382765E+00    3.0041004610623578E+00    4.5057140978007508E+00
O2D2   -8.8555703508563166E+00    2.0558975635951029E+00    2.5573859859081542E+00
HGA3   -1.0776590663192843E+01    2.4741313960843336E+00    4.7143676880483332E+00
HGA3   -1.0017244799712365E+01    8.7638252011711815E-01    4.9696460039570773E+00
HGA3   -1.0972109924883576E+01    1.1921837165508997E+00    3.3989864456413610E+00
C331    5.8252666400344599E-01    1.0731921149285826E+01    1.2980324313321521E+00
C2O3    1.3248991544551212E+00    9.9211130463416293E+00    2.3769565116588267E+00
O2D2    1.1571321281416871E+00    1.0318569783465593E+01    3.5645710211090353E+00
O2D2    2.0731962321544608E+00    8.9747423767823840E+00    1.9467299007515639E+00
HGA3    8.8023464186508793E-01    1.0380907449854677E+01    2.6886817705224519E-01
HGA3    8.2578218682015814E-01    1.1797288948512413E+01    1.3512440751774364E+00
HGA3   -4.8650472875270462E-01    1.0606287853613598E+01    1.4410689091000464E+00
C331   -2.0668140617047590E+00   -1.1469401667240216E+01    3.8596362558312260E+00
C2O3   -1.6668278601013480E+00   -9.9756377380936581E+00    3.9440572003002985E+00
O2D2   -1.1291160422019506E+00   -9.3818886851996304E+00    4.9456352572771900E+00
O2D2   -1.8885498234285576E+00   -9.4510345596446275E+00    2.8677220800051066E+00
HGA3   -3.1091025170208617E+00   -1.1483149610831131E+01    4.2411845384534734E+00
HGA3   -1.4772332144597096E+00   -1.2132840576656161E+01    4.4834574772893241E+00
HGA3   -1.9827508718476854E+00   -1.1804967323207858E+01    2.8190096032784329E+00
C331    3.8737651458121936E+00    6.7122431033381789E+00    8.8332635580607857E+00
C2O3    3.1206129743733477E+00    5.4764674249097656E+00    9.1716770330819450E+00
O2D2    1.9911618803721405E+00    5.6540663666898565E+00    9.7476362737940416E+00
O2D2    3.6570136766822023E+00    4.3713005046048412E+00    9.0474388914834591E+00
HGA3    3.2811301308962739E+00    7.6180502816080233E+00    9.0818908472787232E+00
HGA3    4.0004317466038151E+00    6.6887756298422527E+00    7.7635655286028262E+00
HGA3    4.7893200656997612E+00    6.7596423769223479E+00    9.3439591447408787E+00
C331   -3.2337511597186013E+00    1.1344626265483708E+01   -1.6847954285536051E+00
C2O3   -2.0759691139002299E+00    1.0635681202735972E+01   -9.6124479129409424E-01
O2D2   -9.3283103600675099E-01    1.0391224426170343E+01   -1.4868556400282500E+00
O2D2   -2.4442617575738317E+00    1.0215898828599389E+01    1.0004954255938565E-01
HGA3   -3.6913735495842550E+00    1.0667616495453373E+01   -2.5703233939830730E+00
HGA3   -2.8165562305885214E+00    1.2233143086185851E+01   -2.1677005892082390E+00
HGA3   -4.0684357118508574E+00    1.1568589174309528E+01   -1.0685375569186288E+00
C331   -1.1936002475203824E+00   -5.5256588728697418E+00   -8.8986714386542385E+00
C2O3   -2.5560718509946341E+00   -5.0414682300113602E+00   -9.2925135973709700E+00
O2D2   -3.1916593681314360E+00   -5.7032146394424093E+00   -1.0232449238728931E+01
O2D2   -2.8478927984095330E+00   -4.0465281243358788E+00   -8.6351410269169619E+00
HGA3   -8.6142762012271390E-01   -6.4180108684351840E+00   -9.4319246497722435E+00
HGA3   -1.2296815923436701E+00   -5.8332902710905961E+00   -7.8217430925072753E+00
HGA3   -4.2455904686384771E-01   -4.8133787364263219E+00   -8.9898912970718765E+00
C331   -4.6225458129600918E+00   -1.0765305183986433E+01    1.1173657718624266E+00
C2O3   -5.4515067674852160E+00   -9.4048667909153654E+00    1.0826722680627234E+00
O2D2   -4.7002687010434316E+00   -8.4268057750781082E+00    1.3608131241314114E+00
O2D2   -6.6409747968815562E+00   -9.3605753286368678E+00    6.5110203843900005E-01
HGA3   -4.7426643548841891E+00   -1.1173555259263269E+01    1.0626760617156315E-01
HGA3   -5.0822417591357372E+00   -1.1410160457779272E+01    1.8385677172424464E+00
HGA3   -3.5308179828691415E+00   -1.0584302775269348E+01    1.3375182777528114E+00
C331   -1.1153580147723428E+01   -2.5884308765616426E+00    3.3946189117774703E+00
C2O3   -1.1033680353666673E+01   -1.8185674394245064E+00    2.0972489758151420E+00
O2D2   -1.2139565929332903E+01   -1.4158152132471504E+00    1.5725037449034081E+00
O2D2   -9.9015439322225411E+00   -1.6316111958203723E+00    1.6808179994126229E+00
HGA3   -1.2031470470695812E+01   -3.2547388084710782E+00    3.3710712999216188E+00
HGA3   -1.1149520299925994E+01   -1.9156005074162397E+00    4.2663349065532161E+00
HGA3   -1.0280384836834099E+01   -3.2505387648570960E+00    3.4450512011202150E+00
C331    3.3515141914380666E+00    4.2069013093485774E-01    1.0038114300653685E+01
C2O3    4.1031464487084479E+00   -4.1286222937651063E-01    8.9634057360800483E+00
O2D2    4.3110024364341912E+00    1.7936239211690935E-01    7.8694445517705640E+00
O2D2    4.5474617043201446E+00   -1.5149308026580666E+00    9.2536070594755166E+00
HGA3    3.9253268476498917E+00    1.2433545324663506E+00    1.0486338082891528E+01
HGA3    3.0757352893835139E+00   -2.6594897079589869E-01    1.0853120800210021E+01
HGA3    2.4770100412562672E+00    9.1860023082201270E-01    9.5347467181613812E+00
C331    9.9947792379586708E+00   -5.4788252058269418E+00   -2.3311235966590953E+00
C2O3    8.7779894887268721E+00   -5.5545114341705615E+00   -1.4241420361148394E+00
O2D2    7.9442203307873109E+00   -4.6782934755349386E+00   -1.6202064191292258E+00
O2D2    8.8061498533360680E+00   -6.4351539160556959E+00   -4.9885462026178251E-01
HGA3    1.0616888225459304E+01   -4.7184775513413983E+00   -1.9417292481354622E+00
HGA3    9.7104262654143163E+00   -5.2188910696860544E+00   -3.3812164073737336E+00
HGA3    1.0587857678791066E+01   -6.4516319136421769E+00   -2.3568918423384115E+00
C331    8.6598924370795738E-01   -1.2066022198284999E+01    8.0393338445521434E-01
C2O3    1.1847305035700586E+00   -1.0579375707587038E+01    7.8959597502534884E-01
O2D2    1.4052783715433628E+00   -9.9572772015257467E+00    1.8553896570249326E+00
O2D2    1.2412971910574591E+00   -9.9498559783418710E+00   -3.0935333946398014E-01
HGA3    1.5772657450085239E+00   -1.2561462514559002E+01    1.6236518970217451E-01
HGA3   -1.2404802794579230E-01   -1.2096087331734045E+01    2.4735475519337638E-01
HGA3    8.6211462819773710E-01   -1.2534422199555465E+01    1.7636473332452716E+00
C331    1.0864594015810823E+01   -1.1665152863366615E+00   -6.2472661181836076E+00
C2O3    9.6768362003825121E+00   -1.5955536714470293E+00   -5.3595096017936257E+00
O2D2    9.7643968695004197E+00   -2.7439413011264415E+00   -4.8679781327011202E+00
O2D2    8.8168385614425979E+00   -7.7427745596161923E-01   -5.2021546528664651E+00
HGA3    1.0571941530161871E+01   -1.4161223778528145E+00   -7.3009022543146864E+00
HGA3    1.1708672343714474E+01   -1.7964125793896102E+00   -5.9392008785153765E+00
HGA3    1.1052505273976156E+01   -9.2313772580056269E-02   -6.1580946767703644E+00
C331    5.3513632320768343E+00    1.0708269998384679E+01   -8.8673994928690614E-01
C2O3    5.3111610305235155E+00    9.2767562665609091E+00   -1.2098667346706213E+00
O2D2    4.1757546651544377E+00    8.7494095304242165E+00   -9.7392391737635842E-01
O2D2    6.3479624095478240E+00    8.7367430810151543E+00   -1.6696632097464370E+00
HGA3    5.9215998283317397E+00    1.0905164569651275E+01    3.4496061470179625E-03
HGA3    4.3224820876041905E+00    1.1135070472053368E+01   -8.2209205329040269E-01
HGA3    5.8985907785817115E+00    1.1175916638480636E+01   -1.7738427596382669E+00
C331   -1.1550263980140789E+01    1.9597416315007052E+00   -5.5889260273153230E-01
C2O3   -1.0424901256060327E+01    1.4341382048827258E+00   -1.2952918869364840E+00
O2D2   -9.2211449432836758E+00    1.7623646100609669E+00   -1.0062076096043417E+00
O2D2   -1.0852174808022925E+01    5.9792233230983705E-01   -2.1620408877206510E+00
HGA3   -1.2509436207064878E+01    1.4662158069512781E+00   -7.1630801465853167E-01
HGA3   -1.1641911191407376E+01    3.0407486289440424E+00   -8.3054175877537795E-01
HGA3   -1.1406466031064843E+01    1.8586422119174593E+00    5.5117409982113974E-01
C331   -3.4534089693488319E+00   -1.1773298386098919E+01   -3.6193731558253344E+00
C2O3   -3.0819301086065125E+00   -1.0469290569798678E+01   -2.9575545607847129E+00
O2D2   -1.8492802381762035E+00   -1.0153058861857328E+01   -2.8445050740120288E+00
O2D2   -4.0997994470537948E+00   -9.7896687516029761E+00   -2.6570860398100029E+00
HGA3   -4.2506501182914329E+00   -1.1633647169004453E+01   -4.3724464478887404E+00
HGA3   -3.6748362374306880E+00   -1.2557545325751880E+01   -2.8199462892045908E+00
HGA3   -2.5460058050865633E+00   -1.2198150770413378E+01   -4.1231791837884950E+00
C331   -7.4319869778667946E-02    2.3987972032174971E+00   -1.1371399414222681E+01
C2O3   -7.6709887156582868E-01    2.1594546207185412E+00   -1.0145884566433145E+01
O2D2   -9.8692117879377839E-01    3.2172496029531192E+00   -9.4632073912187398E+00
O2D2   -9.9774041429552096E-01    9.6552177628374991E-01   -9.8861313721758535E+00
HGA3   -2.1036236069355246E-01    3.4755968137399544E+00   -1.1638148646179554E+01
HGA3   -7.0784809703999785E-01    1.8330597942813900E+00   -1.2109021124213815E+01
HGA3    9.6508030706842673E-01    2.0163806596492075E+00   -1.1474477985775462E+01
C331    4.3845070344090478E-02   -1.5941452846608715E+00   -1.1874901481516437E+01
C2O3    1.3437329479057774E+00   -9.0863913103929805E-01   -1.1467299301827794E+01
O2D2    2.2143339150554655E+00   -6.5231772240326558E-01   -1.2374551710204067E+01
O2D2    1.4036079559921044E+00   -6.1033829423809605E-01   -1.0264908873734157E+01
HGA3   -7.8343303405587317E-01   -9.3524113654217156E-01   -1.1550947372177941E+01
HGA3    3.8390420492009393E-02   -2.5421832188634794E+00   -1.1331505192239169E+01
HGA3    8.4194551530071257E-02   -1.6374415276620737E+00   -1.3001643423894873E+01
C331    1.2066419867341640E+01    1.0145309040721040E+00   -2.4414324295615670E+00
C2O3    1.0654795016438039E+01    1.6221353642422245E+00   -2.7806705167794781E+00
O2D2    9.7507701991724005E+00    9.5105108294003537E-01   -2.2301786083379933E+00
O2D2    1.0380274616124243E+01    2.5824335680367256E+00   -3.5773511382667573E+00
HGA3    1.2309744478029845E+01    2.9560568199437459E-01   -3.2192524360724075E+00
HGA3    1.2096037185024647E+01    4.7817999951544665E-01   -1.4513662550367827E+00
HGA3    1.2961225850204952E+01    1.7287901942558974E+00   -2.4204738480016674E+00
C331   -7.1285241554848910E-01    1.8437021447593127E+00    1.1908358034956960E+01
C2O3   -8.5483483998458532E-01    1.7805062426135747E+00    1.0441191620388681E+01
O2D2   -8.4624120195204466E-01    6.8269681236935997E-01    9.8544672655466119E+00