&FORCE_EVAL
  METHOD  FIST
  &MM
    &FORCEFIELD
      &CHARGE
        ATOM  C2O3
        CHARGE  0.4524
      &END
      &CHARGE
        ATOM  Cd
        CHARGE  0.9768
      &END
      &CHARGE
        ATOM  O2D2
        CHARGE  -0.4704
      &END
      &CHARGE
        ATOM  Se
        CHARGE  -0.9768
      &END
      DO_NONBONDED
      EI_SCALE14  1.0
      IGNORE_MISSING_CRITICAL_PARAMS
      &NONBONDED
        &LENNARD-JONES
          ATOMS  Cd C2O3
          EPSILON  [kcalmol] 0.1547
          SIGMA  [angstrom] 2.9841
        &END
        &LENNARD-JONES
          ATOMS  Cd C331
          EPSILON  [kcalmol] 0.1547
          SIGMA  [angstrom] 2.9841
        &END
        &LENNARD-JONES
          ATOMS  Cd Cd  
          EPSILON  [kcalmol] 0.0741
          SIGMA  [angstrom] 1.234
        &END
        &LENNARD-JONES
          ATOMS  Cd HGA3
          EPSILON  [kcalmol] 0.1002
          SIGMA  [angstrom] 2.5542
        &END
        &LENNARD-JONES
          ATOMS  Cd O2D2
          EPSILON  [kcalmol] 0.4383
          SIGMA  [angstrom] 2.471
        &END
        &LENNARD-JONES
          ATOMS  Cd Se  
          EPSILON  [kcalmol] 0.3639
          SIGMA  [angstrom] 2.94
        &END
        &LENNARD-JONES
          ATOMS  Se C2O3
          EPSILON  [kcalmol] 0.1748
          SIGMA  [angstrom] 3.5885
        &END
        &LENNARD-JONES
          ATOMS  Se C331
          EPSILON  [kcalmol] 0.1748
          SIGMA  [angstrom] 3.5885
        &END
        &LENNARD-JONES
          ATOMS  Se HGA3
          EPSILON  [kcalmol] 0.1132
          SIGMA  [angstrom] 3.1587
        &END
        &LENNARD-JONES
          ATOMS  Se O2D2
          EPSILON  [kcalmol] 0.3856
          SIGMA  [angstrom] 3.526
        &END
        &LENNARD-JONES
          ATOMS  Se Se  
          EPSILON  [kcalmol] 0.102
          SIGMA  [angstrom] 4.852
        &END
      &END
      PARM_FILE_NAME  /Users/bvanbeek/Documents/GitHub/qmflows/test/test_files/Cd68Cl26Se55__26_acetate.prm
      PARMTYPE  CHM
      SHIFT_CUTOFF  .TRUE.
      &SPLINE
        R0_NB  0.25
      &END
      VDW_SCALE14  1.0
    &END
    &POISSON
      &EWALD
        EWALD_TYPE  NONE
      &END
      PERIODIC  NONE
    &END
    &PRINT
      &FF_INFO LOW
        SPLINE_DATA  .FALSE.
        SPLINE_INFO  .FALSE.
      &END
    &END
  &END
  &SUBSYS
    &CELL
      ABC  [angstrom] 50.0 50.0 50.0
      PERIODIC  NONE
    &END
    &COORD 
 Cd -2.6200813802 -1.4527326242 -4.0376393495
 Cd -2.5210042534 -4.1587008925 -0.7016529328
 Cd -4.9268858535 -0.6634745146 -0.582411286
 Cd 0.8007799165 0.8178886771 -4.8889081651
 Cd 0.9052586207 -1.9983720953 -1.7142277295
 Cd -1.5406699505 1.768735702 -1.4596457194
 Cd 0.8089380404 -4.7056033394 1.6300501431
 Cd -1.5280062092 -1.1343612025 1.9685207306
 Cd -3.7225832613 2.5234757959 2.1211101615
 Cd 4.34812558 0.3637217225 -2.4340666086
 Cd 2.0002560827 4.0154997986 -2.184070481
 Cd 4.3220554239 -2.3349117478 0.7734791149
 Cd 2.1467350288 1.2911687886 1.0706818224
 Cd -0.267096157 4.7992357618 1.2565913843
 Cd 2.0195048134 -1.5046553889 4.3400656251
 Cd -0.2223753948 1.9280982009 4.446974945
 Se -1.1418497568 -3.3130664924 -2.8270712923
 Se -3.6564415082 0.5509271917 -2.5984964487
 Se -3.6571702447 -2.4184089362 0.9811568581
 Se 2.4286328669 -0.955879871 -3.7191705002
 Se -0.0593993065 2.9009272555 -3.4586267906
 Se 2.4000119689 -3.8082640189 -0.3313015763
 Se 0.0077947778 -0.019897665 -0.0382471629
 Se -2.4481261523 3.7557413565 0.1115338241
 Se -0.0548528677 -2.9190710359 3.4236845041
 Se -2.4707380338 0.7219995783 3.642533076
 Se 3.7013334377 2.4179353131 -0.863983994
 Se 3.675565831 -0.4339728292 2.5263474288
 Se 1.3318562648 3.2369877555 2.7132666378
 Cd -3.3868549622 -4.5078890067 -6.6330050004
 Cd -5.8275061113 -0.5244659655 -6.288310675
 Cd -3.8411276279 -7.078930527 -3.6449930919
 Cd -6.0752563466 -4.0670502326 -3.333286967
 Cd -8.0103961792 0.1551819382 -2.9110897671
 Cd -5.8669123939 -6.2725594016 0.5877420758
 Cd -8.0160755998 -2.8140424947 0.6025204295
 Cd -0.2878256734 -2.4747489677 -7.6037819126
 Cd -2.7506644882 1.4541743104 -7.3108478272
 Cd -0.1933387274 -5.4273343954 -4.6165573053
 Cd -5.1987881556 2.5451384943 -4.0687633009
 Cd -0.494748325 -7.8598691698 -1.3520768247
 Cd -7.2247443509 3.0775354691 -0.4675929837
 Cd -2.7800482563 -6.9455328679 2.6222949931
 Cd -5.2305176964 -3.5498511878 3.1627960433
 Cd -7.2284419205 0.1069411312 3.0532651153
 Cd 2.930488249 -0.4600779334 -8.056532333
 Cd 0.3619978155 3.5797556829 -7.7907882433
 Cd 3.237714696 -3.2149959535 -5.39239015
 Cd -1.8355126825 4.751004969 -4.8466710294
 Cd 3.1866456763 -5.8407849664 -2.2679613445
 Cd -4.0630277448 5.575166491 -1.5116713795
 Cd 2.7616616486 -8.0315148502 0.8338710189
 Cd -5.8711292956 5.8444522696 1.9097810704
 Cd 0.3163405229 -7.0646722642 4.8155958555
 Cd -1.8617033071 -3.9602342551 5.4615341474
 Cd -4.0940339958 -0.5397483583 5.7200313283
 Cd -5.8663565462 2.877235569 5.4193736267
 Cd 6.3084810719 -0.9008069119 -5.6997501869
 Cd 4.0949085524 2.9693886393 -5.3996573637
 Cd 1.5101210383 6.619222033 -5.2122308435
 Cd 6.565616288 -3.3611730952 -2.7997168332
 Cd -0.432619841 7.6179702499 -2.092949244
 Cd 6.2216930574 -5.8008070085 0.1209088077
 Cd -2.5861109354 8.0817598023 0.9955694476
 Cd 4.0487631658 -4.8426646955 3.8676476935
 Cd -2.3679982767 5.7585108417 4.9853318388
 Cd 1.4596348652 -4.0276603314 7.3938061458
 Cd -0.4495382675 -0.774371736 7.8489642222
 Cd -2.6342234086 2.2760118119 7.8226694616
 Cd 7.6447641255 2.6316800017 -2.7064575625
 Cd 5.421886962 6.1164442119 -2.4792852763
 Cd 7.8692083687 0.0908222284 0.1263067955
 Cd 5.8720591358 3.7797267128 0.5357980575
 Cd 3.353466546 7.1694760097 0.5595414457
 Cd 7.5620522872 -2.2316607662 3.1389487712
 Cd 5.8241369514 1.1713232974 3.6635997959
 Cd 3.6003855968 4.6472744071 3.9056023397
 Cd 1.22316485 7.704575277 3.6899816649
 Cd 5.2829258532 -1.3035522648 6.5147589911
 Cd 3.2092808394 1.9910833609 6.9791646316
 Cd 0.8458069652 5.3763724104 6.8897024375
 Se -2.3629604947 -6.6392368208 -5.7043414873
 Se -4.7398150332 -2.6978376455 -5.2131422477
 Se -7.3397475374 1.170654393 -5.1423147612
 Se -4.6425505439 -5.488075564 -1.6314744369
 Se -7.0702807218 -2.045922796 -1.7595218014
 Se -7.3964082246 -4.8209833188 2.0224103382
 Se 1.1922723878 -4.3139556014 -6.5685759004
 Se -1.2164337205 -0.409952442 -6.0669667163
 Se -3.7560853341 3.462740976 -6.0534450835
 Se 1.165310328 -7.1755761121 -3.2114371715
 Se -6.1638349709 4.3375268443 -2.440201516
 Se -1.191463501 -6.0611214491 0.6077890752
 Se -5.8444049972 1.2773513341 1.0354056834
 Se -3.7815026833 -5.3586902591 4.3915254691
 Se -6.2064307032 -1.6322061134 4.6417399467
 Se 4.8010072504 -2.0430428444 -7.3857848748
 Se 2.3310909577 1.9362431713 -6.9711398704
 Se -0.2569791143 5.8637079866 -6.8670081075
 Se 4.8212923513 -4.7884545867 -4.0320473118
 Se -2.5252452271 6.7246985894 -3.2966566002
 Se 4.7047623397 -7.6228182826 -0.7668058993
 Se -4.9441650675 7.5202590918 0.2295039604
 Se 2.3084548297 -6.5827315011 3.0887173246
 Se -4.5617793286 4.5740374753 3.8452870437
 Se -0.3145248538 -5.7722085769 6.9131045619
 Se -2.5516121396 -2.1053572451 7.1481427576
 Se -5.0146164333 1.4769442884 7.3604712165
 Se 5.9752240029 1.4671759379 -4.4623459624
 Se 3.5667224228 5.2033362244 -4.2078746473
 Se 5.8907920197 -1.3292151655 -1.1052529625
 Se 1.2009494443 5.9942765727 -0.6420799921
 Se 5.9159611913 -4.1500536946 2.2235451619
 Se -1.1458009632 6.8222736797 2.8493417715
 Se 3.5550976881 -3.291990537 5.8806868746
 Se 1.2297520173 0.341709962 6.0258968601
 Se -1.1540634097 3.735595691 6.1679962251
 Se 7.4137153702 4.8661335996 -1.5268647042
 Se 7.3896879708 2.0316326465 1.7460983962
 Se 5.0004874228 5.7712415821 1.9635394637
 Se 7.3211486499 -0.6739732424 5.1233671306
 Se 4.981401317 2.9490725834 5.360332722
 Se 2.6332362031 6.6120295777 5.4994336706
 C -1.1284779879 9.28061638 8.1511076622
 C -1.7701307886 7.9402278288 7.7836179922
 O -2.7014671667 7.5739177393 8.4385722538
 O -1.2399192665 7.2951193305 6.7556076116
 H -1.1959817564 9.9966206642 7.3052267342
 H -0.0613359395 9.1425395321 8.4264733356
 H -1.6530874019 9.747407426 9.0378056134
 C 1.2588213193 10.6706688485 -5.188976926
 C 1.7165551492 9.8794664575 -3.9654988221
 O 2.4837544099 10.4181792979 -3.229073072
 O 1.2514958691 8.641146476 -3.8605729224
 H 0.1548202975 10.7950568955 -5.1785962849
 H 1.5608811493 10.1653876841 -6.1276238109
 H 1.7175707741 11.7050002413 -5.1917107148
 C -6.1169179448 0.4653587428 -10.3176259442
 C -4.9625576648 -0.2866156949 -9.6510795393
 O -4.440489612 -1.1489376754 -10.2871174673
 O -4.6761709733 0.067825451 -8.4069812442
 H -5.886376466 1.5497374898 -10.3879603621
 H -7.0609582338 0.3306451149 -9.7515772344
 H -6.2901976004 0.0854639627 -11.3689431167
 C 1.145670572 -3.3065143695 11.4103979123
 C 1.6857385017 -2.311311933 10.3983898197
 O 2.5476097086 -1.5898220551 10.7903112959
 O 1.1958754365 -2.366885452 9.1746642269
 H 1.3306998829 -4.3470720137 11.0774811832
 H 0.0546810762 -3.1560704925 11.553969497
 H 1.6423506164 -3.1744175355 12.4184376363
 C -7.5538234583 -7.6890012816 -6.2621381564
 C -7.3913613586 -7.0470275704 -4.8836250223
 O -8.211980245 -7.3025560836 -4.052845861
 O -6.3455148282 -6.2502865368 -4.7216928641
 H -6.6766247744 -8.3254960767 -6.5064492742
 H -7.6687610948 -6.9141285297 -7.0486482677
 H -8.4730091985 -8.3470962399 -6.2942138054
 C 11.4979913754 -1.9891286118 2.1360388937
 C 10.4157993467 -2.2805286497 1.0933874808
 O 10.7304829619 -2.9478054365 0.1529314459
 O 9.208180891 -1.8030837882 1.3598073096
 H 11.2261675542 -2.4131872971 3.1233417207
 H 11.6531953696 -0.8935800449 2.2377462946
 H 12.4853759669 -2.4442082204 1.8248868449
 C -9.9254945032 2.4455651182 5.93409903
 C -9.221460792 2.7699893395 4.6194525755
 O -9.7730145083 3.5186548083 3.8744065991
 O -8.0425588475 2.1942789645 4.4320637049
 H -9.3093067599 2.7584308155 6.8026592261
 H -10.1345862192 1.358069322 6.0099198885
 H -10.9146205374 2.9903405178 6.005292725
 C 3.2425671331 11.1954821174 2.7192270518
 C 2.2607407996 10.4212670347 1.8573800279
 O 1.4835981455 11.0822840356 1.2432728275
 O 2.2951041722 9.1048005797 1.927400326
 H 4.2831896258 10.9463769075 2.4228588583
 H 3.1000953999 10.9578357533 3.7917263001
 H 3.1091475308 12.3110438213 2.5891286795
 C -1.6260236404 -10.6454881372 5.1964562504
 C -1.2192442887 -10.0283579972 3.8576493217
 O -0.9376728982 -10.7789305451 2.9714014296
 O -1.2015460203 -8.7024435105 3.8094098431
 H -2.6584680011 -10.3425117662 5.4710370067
 H -0.9292335379 -10.3383371548 6.0023978664
 H -1.6056997322 -11.7748325186 5.1378638251
 C 3.174137761 4.8061230234 10.428895559
 C 1.9644698541 4.174546655 9.736265694
 O 0.936408188 4.1250758773 10.3406710042
 O 2.146840958 3.7921369441 8.4766237728
 H 3.5227872233 5.709295001 9.8887137545
 H 4.0070855296 4.0739106105 10.4905361699
 H 2.9105782424 5.1141171267 11.4838724655
 C -1.8638890682 11.8042961606 -0.3582957536
 C -0.7752407296 10.7610337423 -0.6161889
 O 0.2719217743 11.165818187 -1.0172984805
 O -1.1182820734 9.4962987075 -0.4172051665
 H -2.2051044588 11.7691409492 0.6952687039
 H -2.7296717099 11.6392734064 -1.032940372
 H -1.4721846951 12.84745395 -0.5556937233
 C -3.3416115449 -4.6333950396 -10.5914719524
 C -2.5020182821 -3.5433314285 -9.9750684931
 O -1.9235965815 -2.867758105 -10.775660732
 O -2.4468334894 -3.4385583943 -8.6772532027
 H -4.4034774702 -4.5005321027 -10.3023744829
 H -2.9856981074 -5.6265543578 -10.2525553104
 H -3.2917959015 -4.6183613644 -11.7224711821
 C -6.2092836003 -10.0704238517 2.1963617854
 C -4.9972193284 -9.5658044699 1.41251581
 O -4.4075423499 -10.3710966246 0.7615571801
 O -4.7295777157 -8.2736566338 1.5119854421
 H -7.1359463085 -9.5591293782 1.8649979816
 H -6.0688836555 -9.9002245377 3.2849569136
 H -6.3568286092 -11.1814917324 2.0410603215
 C -11.4574222233 -1.6149819857 2.4843053916
 C -10.5357119581 -0.6954192957 1.690550908
 O -11.0466757097 0.1798496801 1.0642675226
 O -9.2431381125 -0.9786212275 1.7398045818
 H -11.2117578713 -1.5750957286 3.5664655145
 H -11.3750897089 -2.6647503691 2.1324663802
 H -12.5383600447 -1.3010017244 2.3681352005
 C 6.0245286643 -0.1061771571 10.2386655223
 C 4.638755281 0.2216968224 9.6798672448
 O 3.827999322 0.6428608856 10.4491012342
 O 4.4817011487 0.0485891066 8.3741302613
 H 6.7959409922 0.542056372 9.773569983
 H 6.2817868339 -1.1693016812 10.0615273336
 H 6.0560712073 0.0715692067 11.3556851791
 C 9.9190176304 -6.4219182337 -1.1876005258
 C 9.2487953064 -5.1587201503 -1.736854396
 O 9.8283670431 -4.5440833656 -2.5812927952
 O 8.0477766199 -4.8783389838 -1.2446756421
 H 9.3024800153 -7.320483281 -1.3929878833
 H 10.0902164699 -6.331719646 -0.0956852239
 H 10.9272160131 -6.5799762101 -1.6771789089
 C 0.7575034357 -11.9011406273 -0.0165283311
 C 1.2852285776 -10.6782972556 0.7283644066
 O 2.0676467406 -10.8411320534 1.6198019716
 O 0.8739970797 -9.4911993413 0.2938618908
 H 1.0343774276 -11.866054382 -1.0894695354
 H -0.3504066654 -11.9557597546 0.0719723731
 H 1.1821995632 -12.8485262438 0.42441128
 C 9.8749092386 -2.9456220542 -5.9632447074
 C 9.4003231828 -2.0919688482 -4.7885295981
 O 10.2274884495 -1.4329139397 -4.2348856076
 O 8.1003990045 -2.1091195674 -4.5346721751
 H 9.3855488274 -2.6360660233 -6.9073368428
 H 9.6549657543 -4.0176325086 -5.7701830436
 H 10.9923014017 -2.8481311163 -6.1049388042
 C 6.1239249901 10.006659222 -2.1683940107
 C 4.8479470367 9.5232353667 -1.4706248583
 O 4.1849841998 10.3415798804 -0.9076811613
 O 4.6191869302 8.2162900858 -1.5259475612
 H 6.0888725086 9.7817643076 -3.2532997254
 H 7.0228632327 9.53470104 -1.7210767933
 H 6.2363715403 11.1272004758 -2.0560983543
 C -11.5447843068 1.72085847 -2.0777175187
 C -10.4413718895 2.1106759172 -1.0922977321
 O -10.7376712777 2.8373709562 -0.1916919584
 O -9.2364257841 1.6125441713 -1.3410480374
 H -11.6955650191 0.6216650539 -2.0844415811
 H -11.2974346902 2.0650326055 -3.1024958044
 H -12.5280948569 2.1967182166 -1.7847637926
 C -3.4905315293 -10.9709485933 -3.2808384914
 C -2.8109226713 -10.2344306116 -2.1241145149
 O -2.4588644298 -10.8887200422 -1.189425067
 O -2.657076562 -8.9275841946 -2.2798224105
 H -2.9020605547 -10.863047103 -4.2160408875
 H -4.5170840369 -10.5847158092 -3.4459648469
 H -3.5737377384 -12.0755777602 -3.0553726414
 C -1.7094688831 3.2768690239 -11.3832995973
 C -1.0440255495 2.2090483819 -10.5393787606
 O -0.406058139 1.4113284675 -11.1444393515
 O -1.1511280806 2.3033482754 -9.2323985082
 H -1.3017935423 4.2787131747 -11.1387448241
 H -2.8051205634 3.2758711077 -11.2077633108
 H -1.539843088 3.0967265889 -12.4875833149
 C 1.8406752989 -1.5305104345 -11.7387578308
 C 0.7395653233 -1.2354024802 -10.7382893448
 O -0.3414996571 -1.0618598243 -11.2136702327
 O 1.0694714939 -1.1678610656 -9.4642553329
 H 2.2984645504 -2.515960401 -11.5245987165
 H 2.6177448572 -0.7421018954 -11.7020763079
 H 1.4355324491 -1.5625232236 -12.7951274823
 C 11.4782885103 1.6456527468 -2.5967329611
 C 10.525990115 0.5810230628 -2.0466181537
 O 11.0003905273 -0.4667694622 -1.7256249793
 O 9.2494096221 0.940615448 -1.9482364399
 H 11.4813705599 2.5447699773 -1.9477141808
 H 11.1933515789 1.9341922939 -3.6283755473
 H 12.5372921429 1.2479978585 -2.6349419663
 C -1.9566964144 1.4170480165 11.7473362256
 C -0.813745434 1.276596558 10.7353866388
 O 0.2998610206 1.3003280414 11.163501412
 O -1.1758102655 1.1281955007 9.4675432874
 H -2.6053807184 0.5163823849 11.7382423363
 H -2.5695885378 2.3146362337 11.5243599747
 H -1.5496038156 1.5349428006 12.7960162035
 C -10.2513538364 5.7928627914 1.2472343901
 C -8.9177786485 5.5712050213 1.9542144322
 O -8.7146483801 6.1461576897 2.9847646669
 O -8.0370655536 4.7848916508 1.3419026667
 H -10.7939011109 4.8298792256 1.1361173509
 H -10.1021880888 6.2409512218 0.2444897612
 H -10.9107053182 6.4845588158 1.8455906321
    &END
    &KIND C2O3
      ELEMENT  C
    &END
    &KIND C331
      ELEMENT  C
    &END
    &KIND CD
      ELEMENT  Cd
    &END
    &KIND HGA3
      ELEMENT  H
    &END
    &KIND O2D2
      ELEMENT  O
    &END
    &KIND SE
      ELEMENT  Se
    &END
    &TOPOLOGY
      &CENTER_COORDINATES
        CENTER_POINT  0.0 0.0 0.0
      &END
      CONN_FILE_FORMAT  PSF
      CONN_FILE_NAME  /Users/bvanbeek/Documents/GitHub/qmflows/test/test_files/Cd68Cl26Se55__26_acetate.psf
      COORD_FILE_FORMAT  OFF
    &END
  &END
&END

&GLOBAL
  PRINT_LEVEL  low
  PROJECT  cp2k
  RUN_TYPE  MD
&END

&MOTION
  &MD
    ENSEMBLE  NVT
    STEPS  1000
    TEMPERATURE  300.0
    &THERMOSTAT
      &CSVR
        TIMECON  1250
      &END
      TYPE  CSVR
    &END
    TIMESTEP  1.0
  &END
&END

