 # Version information for this restart file 
 # current date 2020-03-19 18:02:16.758
 # current working dir /Users/bvanbeek/Documents/GitHub/qmflows/test/test_files/plams_workdir.008/cp2k_mm_md
 # Program compiled at                             Fri Apr 19 11:24:34 CEST 2019
 # Program compiled on                                             192.168.1.124
 # Program compiled for                           Darwin-IntelMacintosh-gfortran
 # Source code revision number                                         svn:18464
 &GLOBAL
   PRINT_LEVEL  LOW
   PROJECT_NAME cp2k
   RUN_TYPE  MD
 &END GLOBAL
 &MOTION
   &MD
     ENSEMBLE  NVT
     STEPS  1000
     TIMESTEP     9.9999999999999989E-01
     STEP_START_VAL  1000
     TIME_START_VAL     9.9999999999999272E+02
     ECONS_START_VAL    -1.5079642989833326E+01
     TEMPERATURE     3.0000000000000000E+02
     &THERMOSTAT
       TYPE  CSVR
       &CSVR
         TIMECON     1.2499999999999998E+03
         &THERMOSTAT_ENERGY
               2.0866454700614312E-01
         &END THERMOSTAT_ENERGY
         &RNG_INIT
Wiener process for Thermostat # 1        1 F T F  -2.2759944493807556E+00        3632282888.0        2669210492.0        2177321284.0         490401956.0        1108475197.0        2552537143.0             12345.0             12345.0             12345.0             12345.0             12345.0             12345.0             12345.0             12345.0             12345.0             12345.0             12345.0             12345.0
         &END RNG_INIT
       &END CSVR
     &END THERMOSTAT
     &AVERAGES  T
       &RESTART_AVERAGES
         ITIMES_START  1
         AVECPU     3.6658904999960260E-02
         AVEHUGONIOT     0.0000000000000000E+00
         AVETEMP_BARO     0.0000000000000000E+00
         AVEPOT    -1.5960487060586871E+01
         AVEKIN     7.7891358778349573E-01
         AVETEMP     5.4116867751188533E+02
         AVEKIN_QM     0.0000000000000000E+00
         AVETEMP_QM     0.0000000000000000E+00
         AVEVOL     8.4354182288623799E+05
         AVECELL_A     9.4486306644281640E+01
         AVECELL_B     9.4486306644281640E+01
         AVECELL_C     9.4486306644281640E+01
         AVEALPHA     9.0000000000000256E+01
         AVEBETA     9.0000000000000256E+01
         AVEGAMMA     9.0000000000000256E+01
         AVE_ECONS     6.4461613716988619E-01
         AVE_PRESS     0.0000000000000000E+00
         AVE_PXX     0.0000000000000000E+00
       &END RESTART_AVERAGES
     &END AVERAGES
   &END MD
 &END MOTION
 &FORCE_EVAL
   METHOD  FIST
   &MM
     &FORCEFIELD
       PARMTYPE  CHM
       PARM_FILE_NAME /Users/bvanbeek/Documents/GitHub/qmflows/test/test_files/Cd68Cl26Se55__26_acetate.prm
       VDW_SCALE14     1.0000000000000000E+00
       EI_SCALE14     1.0000000000000000E+00
       SHIFT_CUTOFF  T
       DO_NONBONDED  T
       IGNORE_MISSING_CRITICAL_PARAMS  T
       &SPLINE
         R0_NB     2.5000000000000000E-01
       &END SPLINE
       &NONBONDED
         &LENNARD-JONES
           ATOMS Cd C2O3
           EPSILON     7.7847969578400509E+01
           SIGMA     2.9841000000000002E+00
         &END LENNARD-JONES
         &LENNARD-JONES
           ATOMS Cd C331
           EPSILON     7.7847969578400509E+01
           SIGMA     2.9841000000000002E+00
         &END LENNARD-JONES
         &LENNARD-JONES
           ATOMS Cd Cd
           EPSILON     3.7288523243435542E+01
           SIGMA     1.2340000000000000E+00
         &END LENNARD-JONES
         &LENNARD-JONES
           ATOMS Cd HGA3
           EPSILON     5.0422537503269112E+01
           SIGMA     2.5541999999999998E+00
         &END LENNARD-JONES
         &LENNARD-JONES
           ATOMS Cd O2D2
           EPSILON     2.2056086015651550E+02
           SIGMA     2.4710000000000001E+00
         &END LENNARD-JONES
         &LENNARD-JONES
           ATOMS Cd Se
           EPSILON     1.8312137123193244E+02
           SIGMA     2.9399999999999999E+00
         &END LENNARD-JONES
         &LENNARD-JONES
           ATOMS Se C2O3
           EPSILON     8.7962670215283850E+01
           SIGMA     3.5884999999999998E+00
         &END LENNARD-JONES
         &LENNARD-JONES
           ATOMS Se C331
           EPSILON     8.7962670215283850E+01
           SIGMA     3.5884999999999998E+00
         &END LENNARD-JONES
         &LENNARD-JONES
           ATOMS Se HGA3
           EPSILON     5.6964383686327977E+01
           SIGMA     3.1587000000000001E+00
         &END LENNARD-JONES
         &LENNARD-JONES
           ATOMS Se O2D2
           EPSILON     1.9404122216826917E+02
           SIGMA     3.5259999999999998E+00
         &END LENNARD-JONES
         &LENNARD-JONES
           ATOMS Se Se
           EPSILON     5.1328331590154185E+01
           SIGMA     4.8520000000000003E+00
         &END LENNARD-JONES
       &END NONBONDED
       &CHARGE
         ATOM C2O3
         CHARGE     4.5240000000000002E-01
       &END CHARGE
       &CHARGE
         ATOM Cd
         CHARGE     9.7680000000000000E-01
       &END CHARGE
       &CHARGE
         ATOM O2D2
         CHARGE    -4.7039999999999998E-01
       &END CHARGE
       &CHARGE
         ATOM Se
         CHARGE    -9.7680000000000000E-01
       &END CHARGE
     &END FORCEFIELD
     &POISSON
       PERIODIC  NONE
       &EWALD
         EWALD_TYPE  NONE
       &END EWALD
     &END POISSON
     &PRINT
       &FF_INFO  LOW
         SPLINE_INFO  F
         SPLINE_DATA  F
       &END FF_INFO
     &END PRINT
   &END MM
   &SUBSYS
     &CELL
       A     5.0000000000000007E+01    0.0000000000000000E+00    0.0000000000000000E+00
       B     0.0000000000000000E+00    5.0000000000000007E+01    0.0000000000000000E+00
       C     0.0000000000000000E+00    0.0000000000000000E+00    5.0000000000000007E+01
       PERIODIC  NONE
       MULTIPLE_UNIT_CELL  1 1 1
     &END CELL
     &COORD
Cd   -2.6763514538796365E+00   -1.1517557473221256E+00   -4.5785466593882385E+00
Cd   -2.4820015202948378E+00   -4.3033351978115473E+00   -1.0674515654246193E+00
Cd   -5.0903436310374097E+00   -3.6405248972109455E-01   -5.1833520156445434E-01
Cd    7.8172791585309376E-01    8.2854147854196281E-01   -5.3207905260735879E+00
Cd    7.7446794371307992E-01   -1.8046033604498604E+00   -1.9764899809017324E+00
Cd   -1.3927943530002145E+00    2.0929148503488082E+00   -1.7603831707749693E+00
Cd    5.4277524311671910E-01   -4.9191076361612467E+00    1.2462125849976227E+00
Cd   -1.2880452222826135E+00   -1.1859235644045383E+00    1.8125336135976435E+00
Cd   -3.8858393718675406E+00    2.7687350206379433E+00    2.1128582906961988E+00
Cd    4.4792737917313952E+00    2.3304209185409469E-01   -2.2044562281879356E+00
Cd    2.5040777391637015E+00    4.3884360427510600E+00   -2.2329222723411672E+00
Cd    4.5691207899628212E+00   -2.6655941829684315E+00    8.5298505744622266E-01
Cd    2.0358749002518866E+00    1.0110444923362141E+00    1.0484845650668324E+00
Cd   -1.4640199859977401E-01    4.7643186321230298E+00    1.5438606560629051E+00
Cd    2.3082326150760353E+00   -1.2118855313845716E+00    4.5989800791931641E+00
Cd   -7.3659159503555449E-02    2.1284709858940469E+00    4.6430375755924915E+00
Se   -1.1626066855847828E+00   -3.0511174503257084E+00   -3.1814866470448977E+00
Se   -3.5616837282885121E+00    6.2099913039984000E-01   -2.9184357720023346E+00
Se   -3.6010364253977749E+00   -2.0093668716778130E+00    7.6204204917075180E-01
Se    2.3707603836379745E+00   -5.4050703777649411E-01   -3.6525853658249869E+00
Se    4.3124012203011597E-01    2.8804476022933048E+00   -3.7055163852367543E+00
Se    2.1743948094889682E+00   -3.6746978241087906E+00   -2.6636083626477691E-01
Se   -6.9469692200530217E-02    1.0966781968394536E-01   -1.1646862735095340E-01
Se   -2.4207808122234007E+00    3.7838455553141790E+00    1.8695762978707886E-01
Se    2.3858816398010277E-01   -2.9747422966936239E+00    3.0497367328203464E+00
Se   -2.4907381309116441E+00    1.1323357604287183E+00    3.5487324611134494E+00
Se    3.9753700213431595E+00    2.2590112939654388E+00   -7.2376789326096225E-01
Se    3.8694491814038154E+00   -8.3098378092354874E-01    2.5673488733210439E+00
Se    1.4158240289166208E+00    3.0478455890079594E+00    2.7496965874530552E+00
Cd   -4.4934853512475188E+00   -4.4991667339317507E+00   -7.1107319962839375E+00
Cd   -6.4353940910353957E+00   -5.2048859313354101E-01   -6.7515083832073612E+00
Cd   -4.1633754511402410E+00   -7.2733563046454188E+00   -3.7635403777139653E+00
Cd   -5.9740796155680425E+00   -3.4293572806765589E+00   -3.1230786284835514E+00
Cd   -8.5597297035870277E+00    5.3570752223684792E-01   -2.9100491231832413E+00
Cd   -6.4720263611792994E+00   -6.6613970092280148E+00   -1.9364707562238392E-01
Cd   -8.7835715606562328E+00   -2.7111273219209564E+00    4.2123916912537851E-01
Cd   -6.5370332924465757E-01   -2.5625524678676554E+00   -8.1137509622471580E+00
Cd   -2.8082504078894921E+00    1.6797212780929500E+00   -7.6940126988359632E+00
Cd   -6.5837468265511778E-01   -5.1989425335294337E+00   -4.8584097703932265E+00
Cd   -5.2853743467969680E+00    2.8391909653713201E+00   -4.1569970763549895E+00
Cd   -6.5259817892456395E-01   -8.1663960157990338E+00   -1.2598237540422996E+00
Cd   -7.5583055619243940E+00    3.0620442031514585E+00   -5.4460107814711656E-01
Cd   -3.3624553681920295E+00   -7.0749319575684115E+00    2.4708976589946006E+00
Cd   -5.9641373912456048E+00   -3.5156216123940371E+00    2.7583915269614070E+00
Cd   -7.2473592070648731E+00    5.5219993702882930E-01    3.2655256339078420E+00
Cd    3.1647877571678888E+00   -2.7861463678009024E-01   -8.0534086515306598E+00
Cd    5.3461398960707751E-01    3.2930167795180330E+00   -8.7192877480995090E+00
Cd    3.3323287247088924E+00   -3.0973051478042999E+00   -5.5883494769684088E+00
Cd   -1.1618179271291933E+00    4.7759861308303622E+00   -4.8734525057824056E+00
Cd    3.0982959579592100E+00   -6.4703265506935885E+00   -2.7674309611402190E+00
Cd   -3.9936512248999372E+00    5.8792874758082538E+00   -1.1484525537384198E+00
Cd    2.8336100558636685E+00   -8.6888591583535728E+00    1.1905233240119779E+00
Cd   -6.1893163839899792E+00    5.8979938239278074E+00    2.1123193150344872E+00
Cd    3.3214071132969297E-01   -7.6968347718309769E+00    4.9075606136557344E+00
Cd   -1.9755878588250844E+00   -4.0134086352612242E+00    5.3437626287189186E+00
Cd   -3.9887078236440474E+00   -4.8748480616077083E-01    6.0525743699544066E+00
Cd   -6.2780901423648467E+00    3.3863913416359255E+00    5.9095228293295046E+00
Cd    6.9786752625577071E+00   -1.1747410567171896E+00   -5.5209306898765149E+00
Cd    4.6094011020311818E+00    3.0040009619409029E+00   -5.0860176323066408E+00
Cd    1.8366475128644992E+00    6.7842503629001225E+00   -5.0581898742656026E+00
Cd    6.7970860186761035E+00   -3.5910015573305993E+00   -2.8766877285619401E+00
Cd   -2.7002309078945214E-02    8.2422076542637566E+00   -1.8788110146980199E+00
Cd    6.5278528372281075E+00   -6.0715018496221784E+00    7.8256184359815822E-02
Cd   -2.6282734537366954E+00    8.8965064536883247E+00    1.8204895835859132E+00
Cd    3.4164789660926242E+00   -4.4592431429069181E+00    3.4491939582690470E+00
Cd   -2.4225473552027359E+00    5.1909212943216589E+00    4.7560642966268682E+00
Cd    1.5649375095224072E+00   -4.2079300471280021E+00    7.5347001277476595E+00
Cd    1.3330369008960463E-01   -5.8588700516757586E-01    8.2209534447046089E+00
Cd   -2.5837144815612141E+00    2.6449399664872755E+00    8.4426198467344271E+00
Cd    8.4397092046498301E+00    2.3985604696752603E+00   -2.9583857574185424E+00
Cd    5.7992900429987220E+00    6.5346792061607344E+00   -2.6465128948403134E+00
Cd    8.3883921490515512E+00   -1.6501448547188557E-01   -7.3693132209344918E-03
Cd    6.1236004109796562E+00    3.6629151052784805E+00    4.2720929518417822E-01
Cd    3.5614155179089475E+00    7.3553887339616351E+00    1.0901403270460170E+00
Cd    7.9565785763811103E+00   -3.6235746929128787E+00    3.2717538715705388E+00
Cd    5.8478070704933671E+00    8.2044331305520557E-01    3.7691231124947535E+00
Cd    4.0303857638656639E+00    4.4206853927799976E+00    4.0773820436076296E+00
Cd    8.9000315228155691E-01    7.7155708744071214E+00    4.2904574334579220E+00
Cd    5.4606395275469355E+00   -1.6451398965526207E+00    6.8877328351355152E+00
Cd    3.5206712268054390E+00    2.2970475420055299E+00    7.7930431533210740E+00
Cd    8.7236467895993175E-01    5.2617198377907739E+00    7.0978077282559537E+00
Se   -3.1346163002246850E+00   -6.2285542069154323E+00   -5.9730424641222397E+00
Se   -5.0678743409201834E+00   -2.4721701403586160E+00   -5.4207899716448145E+00
Se   -7.1768390066103240E+00    1.2347740915463825E+00   -4.9355474051808335E+00
Se   -4.7466684113859392E+00   -5.5374267154555348E+00   -1.8601194344276348E+00
Se   -7.4076552527982154E+00   -1.7243772604595378E+00   -1.6774306679911726E+00
Se   -7.7572692729875961E+00   -5.0073769291888395E+00    1.2429750784527425E+00
Se    9.5657367203879562E-01   -3.6552590266602194E+00   -6.5368401451715989E+00
Se   -1.1829109065991039E+00   -1.3777799217627029E-01   -6.7428873718476723E+00
Se   -3.5065220075846217E+00    3.6068024060569472E+00   -5.8668756451449289E+00
Se    6.1880719277729412E-01   -6.9883109067400673E+00   -3.0222535982424485E+00
Se   -5.6886071676908410E+00    4.2468522700309670E+00   -2.0695707763536944E+00
Se   -1.5012351818282237E+00   -6.3449185490445066E+00    5.4928768667273076E-01
Se   -6.1680508648254415E+00    1.5987481959496102E+00    1.2030532444132789E+00
Se   -4.0340942736133956E+00   -5.1524830544155416E+00    4.0274703052708674E+00
Se   -6.1803516728858590E+00   -1.3221348469424063E+00    4.7153530937068044E+00
Se    5.1186016361450726E+00   -1.4737747611385785E+00   -6.9689808686752199E+00
Se    2.3704635496996640E+00    1.9559580166906185E+00   -7.4028263924833508E+00
Se    4.9491437401164184E-01    5.7884246905432644E+00   -6.9911178172844624E+00
Se    4.7740258759795715E+00   -4.6668885749689739E+00   -4.1008592754545639E+00
Se   -1.8161838419549718E+00    6.6960999622418758E+00   -2.9501255635176569E+00
Se    4.4189567506894738E+00   -7.7217955815293999E+00   -5.9282231620559400E-01
Se   -4.8876994891181527E+00    7.7063683517551693E+00    8.2980452642665747E-01
Se    2.0642179544626136E+00   -6.7258580327851289E+00    3.1619307110062147E+00
Se   -4.8776774079277718E+00    4.6634289687842152E+00    3.9006885069198596E+00
Se   -1.6713164238455167E-01   -5.7078136124937622E+00    6.5151852188501032E+00
Se   -1.9541016311849961E+00   -1.6676913788728747E+00    6.7227660705934804E+00
Se   -4.7215842998556434E+00    1.8890536613431592E+00    7.3436399930981331E+00
Se    6.5142591087589343E+00    1.2360198273310057E+00   -4.2327606444944887E+00
Se    3.9087485144006098E+00    5.3110435492211261E+00   -4.1077444474804823E+00
Se    6.0168333527420179E+00   -1.7515742502945675E+00   -1.0727522014588329E+00
Se    2.1153229797194486E+00    6.2713041568127608E+00   -6.3994787096147143E-01
Se    5.7725039121667390E+00   -4.8588381357118013E+00    2.1541055989963609E+00
Se   -1.2140185847909797E+00    6.9085272375525193E+00    3.0256765426801655E+00
Se    3.5129239180926910E+00   -3.4194737667878510E+00    5.7741178612012272E+00
Se    1.3505346545914889E+00    4.5529304875743654E-01    6.2912720939075299E+00
Se   -1.0842976200771466E+00    3.8803477367736781E+00    6.5019868835710355E+00
Se    7.3049297600909062E+00    4.4749263719842185E+00   -1.8801139824346524E+00
Se    7.0834634450783316E+00    1.5390668774884253E+00    1.5548684584100432E+00
Se    5.0266757934619157E+00    5.5599268998434104E+00    2.0238858026091311E+00
Se    7.3236346765512090E+00   -1.8951343501055669E+00    5.2513788346210655E+00
Se    4.6690626679738063E+00    2.3272774192714860E+00    5.4958638675568308E+00
Se    2.4688448471546831E+00    6.4616826676147854E+00    5.5425405122111258E+00
C331   -2.4304756897515127E+00    9.4511949379623612E+00    6.2488620585274930E+00
C2O3   -2.0976066099415442E+00    7.8878726896618048E+00    6.3938380104939059E+00
O2D2   -9.0919384539033021E-01    7.4999864442731798E+00    6.5778849678335476E+00
O2D2   -3.0150145320346713E+00    7.1447786807412772E+00    6.1782157940639619E+00
HGA3   -2.3928540466164039E+00    9.9696893252601786E+00    7.2018718322996316E+00
HGA3   -3.5109492348543374E+00    9.4980301067307629E+00    5.8775394199577784E+00
HGA3   -1.7821139877314405E+00    9.8714308011997556E+00    5.4172031932409288E+00
C331    2.9774121839371164E+00    1.0757000003244086E+01   -3.2898642113581742E+00
C2O3    2.4265632019626442E+00    9.4571748209116926E+00   -3.8649150429551526E+00
O2D2    3.1296981636187833E+00    8.6017764519312188E+00   -4.5231503349125868E+00
O2D2    1.2852156571276234E+00    9.2874356012846384E+00   -3.5096401959302090E+00
HGA3    3.0736748461650762E+00    1.1372420875563986E+01   -4.2038668877881094E+00
HGA3    3.9346186572500277E+00    1.0532133921594335E+01   -2.8096305603746896E+00
HGA3    2.2112496687939376E+00    1.1204010894373964E+01   -2.6064330056254854E+00
C331   -5.2788959269686595E+00   -2.9763718557355195E-01   -1.0779166158557578E+01
C2O3   -5.4245112851240034E+00    1.0122172050697936E-01   -9.3142498937335798E+00
O2D2   -6.6547156855157938E+00   -4.0840863311203374E-02   -8.9722648341076621E+00
O2D2   -4.5615583270598856E+00    3.4480154832238730E-01   -8.4756344686251452E+00
HGA3   -4.7939333769735910E+00    5.6505584245057583E-01   -1.1333652474505987E+01
HGA3   -6.2519164548485993E+00   -6.1020483389340852E-01   -1.1266516495485444E+01
HGA3   -4.5684991290324399E+00   -1.1131760050073718E+00   -1.0815948952567807E+01
C331   -1.1270844342517776E+00   -3.8796174278408131E+00    9.6519145761226692E+00
C2O3   -1.0918325174340238E-01   -2.8322879525361064E+00    9.6630308942609275E+00
O2D2   -4.8267379930797327E-01   -1.7265445212201225E+00    1.0148563808147552E+01
O2D2    9.1360586847273373E-01   -3.0871503391549111E+00    9.1142092098272087E+00
HGA3   -1.7025790127189060E+00   -3.8232499250848098E+00    8.7137705647774926E+00
HGA3   -1.8209770962773812E+00   -3.9151204313438845E+00    1.0501081862058896E+01
HGA3   -5.8386300236153366E-01   -4.8070487325916940E+00    9.7282218424433662E+00
C331   -9.0936064741688210E+00   -6.2812734522115177E+00   -5.5051987784093779E+00
C2O3   -7.8790783057317890E+00   -5.9305502295612786E+00   -4.6112563000700870E+00
O2D2   -7.1366069296325563E+00   -6.9622571197148790E+00   -4.3468221501172053E+00
O2D2   -7.6724313149375858E+00   -4.7910125186556165E+00   -4.2294484606102483E+00
HGA3   -8.7519616038053538E+00   -6.7631265228838373E+00   -6.4497817458745654E+00
HGA3   -9.6253112484315952E+00   -5.3076234900367973E+00   -5.7849671786611996E+00
HGA3   -9.8649554644103556E+00   -6.9377896045706109E+00   -4.9324461656838334E+00
C331    1.1882866887938404E+01   -1.8468831050423520E+00    1.7029773608775307E+00
C2O3    1.0579452606248106E+01   -2.5359474232207377E+00    1.7243716717886550E+00
O2D2    1.0446839100690211E+01   -3.5565418423686812E+00    2.5040481196390521E+00
O2D2    9.6995226749436920E+00   -1.9722105629376803E+00    1.0960408362402267E+00
HGA3    1.2696945445352959E+01   -2.4579217250549550E+00    1.2895003292744889E+00
HGA3    1.2173542902164421E+01   -1.7968439557412170E+00    2.7724351132352414E+00
HGA3    1.1936404128698740E+01   -8.9352040663673271E-01    1.3089733269373960E+00
C331   -1.0725072824233388E+01    2.8077399376352066E+00    4.4201265397581269E+00
C2O3   -9.2721921245058390E+00    2.5828696148479606E+00    4.3206990780525310E+00
O2D2   -8.6761860393190204E+00    2.5894294219418330E+00    5.4351691139211402E+00
O2D2   -8.8033084605226062E+00    2.3764421032342558E+00    3.1975222145002880E+00
HGA3   -1.1300798949539200E+01    1.9417115804723870E+00    4.8807383692736792E+00
HGA3   -1.1158576727692608E+01    3.0970978445726827E+00    3.4544657753590156E+00
HGA3   -1.0853012921126540E+01    3.7314263771887908E+00    5.0376896103360256E+00
C331    2.2967024212985754E+00    1.1162127082344327E+01    2.0157383485239517E+00
C2O3    1.6546844733106452E+00    9.8766215717745283E+00    2.5575638803885221E+00
O2D2    4.5105876486717827E-01    9.8954002195310746E+00    2.9494385582133766E+00
O2D2    2.3291042784464948E+00    8.9064294530243941E+00    2.4817455326153124E+00
HGA3    1.8340133611252498E+00    1.1590849303566030E+01    1.0807346515711127E+00
HGA3    3.3420938333337689E+00    1.0878271206324859E+01    1.7768989914153970E+00
HGA3    2.2468157859646225E+00    1.1870322371770250E+01    2.8541898849206224E+00
C331   -2.6682367518794652E+00   -1.0540679187046909E+01    3.7685624780658311E+00
C2O3   -1.7189695241642156E+00   -9.4044547873279463E+00    3.9270394328807710E+00
O2D2   -4.5676699036928287E-01   -9.6965221725730473E+00    3.9917931653885192E+00
O2D2   -2.1904314403799159E+00   -8.2801311431098661E+00    3.9397708814030401E+00
HGA3   -3.7213442996891950E+00   -1.0236846340669519E+01    3.5384413575864220E+00
HGA3   -2.5325210751432610E+00   -1.1193970356378784E+01    4.6726331227899500E+00
HGA3   -2.2879920796842903E+00   -1.1130805518433693E+01    2.9325013141774767E+00
C331    2.4427683881659297E+00    5.2104693891482912E+00    1.0816959066074540E+01
C2O3    2.5689031210129096E+00    4.3954669915356037E+00    9.5510381435079257E+00
O2D2    1.4319911747624123E+00    4.2163032345349531E+00    8.9560035046321094E+00
O2D2    3.6482106408502335E+00    4.0517287475906505E+00    9.0919626040782244E+00
HGA3    1.4204714613433582E+00    5.4368605353017232E+00    1.1158150178271651E+01
HGA3    3.0347674628799193E+00    6.2164526883942841E+00    1.0733746134920709E+01
HGA3    2.8303708262922882E+00    4.4686938176836764E+00    1.1587242651633495E+01
C331   -1.3123494334386203E+00    1.2176558699888471E+01   -3.5427546134276688E-01
C2O3   -1.5333609545934612E+00    1.0634098378104804E+01   -1.5894532574550124E-01
O2D2   -6.1795115505679366E-01    9.7775545837753732E+00   -1.4803161777734014E-01
O2D2   -2.7310555095329021E+00    1.0229695312254160E+01   -1.0380852376442684E-01
HGA3   -1.6252404858490781E+00    1.2660752246938955E+01   -1.2263934363105211E+00
HGA3   -2.7187270319910917E-01    1.2405450301869033E+01   -4.4655768515725357E-02
HGA3   -1.9206456857477412E+00    1.2694021042188407E+01    4.0397179326580906E-01
C331   -3.4654723063064381E+00   -3.9285658043568432E+00   -1.1323937655776650E+01
C2O3   -3.4123936359108438E+00   -3.7086362198921630E+00   -9.9288463013032136E+00
O2D2   -4.3492116795022042E+00   -4.2849714952606934E+00   -9.2832701026642042E+00
O2D2   -2.5104098180902117E+00   -2.9576809966485555E+00   -9.4375569904821983E+00
HGA3   -3.7154717427104846E+00   -2.9072105407372044E+00   -1.1763442347080955E+01
HGA3   -4.1381594876666385E+00   -4.8054587865813163E+00   -1.1656766364904717E+01
HGA3   -2.3989952746212913E+00   -4.0468916526163117E+00   -1.1539105745970986E+01
C331   -6.8358243634544964E+00   -9.9495009894010717E+00    1.1168676525374837E+00
C2O3   -5.7484112353221066E+00   -8.9909476758236835E+00    8.3717145652098302E-01
O2D2   -5.0934244123837473E+00   -8.3965374544578015E+00    1.7191774549309622E+00
O2D2   -5.6653383914403666E+00   -8.8589833439933656E+00   -3.4887956416534988E-01
HGA3   -6.7262169094884037E+00   -1.0856674279644144E+01    4.4002573061986910E-01
HGA3   -7.8725339517716018E+00   -9.6825418229789886E+00    8.2521192853311187E-01
HGA3   -6.8725740394438048E+00   -1.0342649732641235E+01    2.1726178364535635E+00
C331   -9.8749706705415381E+00   -1.8124122473059447E+00    4.1568984886834004E+00
C2O3   -9.7011164315202851E+00   -1.5013755776955906E+00    2.7584598975655457E+00
O2D2   -1.0418054027715735E+01   -2.1692753835362537E+00    1.9227847820058561E+00
O2D2   -8.8842405483894566E+00   -6.5958191240841157E-01    2.4540091193085547E+00
HGA3   -1.1000963860441416E+01   -1.8540245017150854E+00    4.3332399983134069E+00
HGA3   -9.3398379817719750E+00   -1.1030937846273607E+00    4.8264748159027411E+00
HGA3   -9.5055572421341985E+00   -2.8310028249745467E+00    4.2924594499012869E+00
C331    4.8505484431526193E+00   -1.9916053669341713E-01    1.0926813567330077E+01
C2O3    4.7443198480407949E+00   -6.3708266659470658E-01    9.4477431338137148E+00
O2D2    4.7883581622440481E+00    3.5484807454761846E-01    8.6016559473505829E+00
O2D2    4.6318184844745565E+00   -1.8280382526277428E+00    9.1719450881277780E+00
HGA3    5.8015360428348037E+00    3.8892953366252520E-01    1.1093207644097527E+01
HGA3    4.8671127333707647E+00   -1.1509498734888965E+00    1.1531410300363525E+01
HGA3    3.9128506073618379E+00    2.7516591034981341E-01    1.1274194865615573E+01
C331    9.8477700973488407E+00   -5.9955060044190214E+00   -2.7794139520676091E+00
C2O3    8.8929311412441834E+00   -6.0558714452002427E+00   -1.6595223222629278E+00
O2D2    8.1721164121306131E+00   -4.9865257347173300E+00   -1.5074680685049029E+00
O2D2    8.8344804062840971E+00   -7.0858621193628100E+00   -1.0489342185956718E+00
HGA3    9.2282580653663615E+00   -6.0986772629651176E+00   -3.6963928921788445E+00
HGA3    1.0608555462387280E+01   -6.8341412038893097E+00   -2.7656571026118861E+00
HGA3    1.0513715959962354E+01   -5.1267630899209147E+00   -2.7740135463129105E+00
C331   -3.3043129048243108E-01   -1.1468649349549192E+01    6.0452247566497253E-01
C2O3    9.6549085481989161E-01   -1.0715592124016815E+01    3.5342096813773177E-01
O2D2    2.0644184015355806E+00   -1.1378975817662946E+01    1.4676602851837328E-01
O2D2    7.8912386558532843E-01   -9.4877008606011604E+00    4.1079027522080058E-01
HGA3   -1.9155912308541867E-01   -1.2570896569464651E+01    8.0277476885803356E-01
HGA3   -1.0903942531782316E+00   -1.1325063733988634E+01   -2.0982463456754988E-01
HGA3   -7.4853443806507403E-01   -1.0934538541889674E+01    1.4969425525010367E+00
C331    1.0318272366332845E+01   -2.2604785955541735E+00   -2.9496263844058275E+00
C2O3    9.2167781029662557E+00   -1.2593295773677295E+00   -3.0708365101532276E+00
O2D2    9.1529148417129278E+00   -1.4711803957263933E-01   -2.4413016701811316E+00
O2D2    8.3544706161208566E+00   -1.7511886995522765E+00   -3.8049070026405847E+00
HGA3    1.0985195380719652E+01   -2.0722634640090933E+00   -2.0613752670107339E+00
HGA3    1.0874554523778668E+01   -2.4094112548600992E+00   -3.8814347436386725E+00
HGA3    9.9088276673615141E+00   -3.2850756457565700E+00   -2.7806673648758147E+00
C331    7.0233695894143544E+00    9.8556367584907285E+00   -7.7336747215405576E-03
C2O3    6.5796245534077018E+00    8.6392564096438917E+00   -7.0790661110093589E-01
O2D2    5.4060957495743747E+00    8.2124153096044132E+00   -3.3808259386570438E-01
O2D2    7.3723017506084343E+00    8.2015079490547400E+00   -1.5148164383816840E+00
HGA3    6.2793397007014269E+00    1.0459351948888610E+01    4.6872090886496842E-01
HGA3    7.6404706060531726E+00    1.0510607655333937E+01   -7.2605903276169825E-01
HGA3    7.7391595213124100E+00    9.5330589092127465E+00    7.4072215807020925E-01
C331   -1.1681662647930272E+01    2.0896795363366980E+00    2.2071184605572752E-01
C2O3   -1.0623596021081577E+01    1.5275023932764653E+00   -7.0900477621805946E-01
O2D2   -9.5591726194361133E+00    2.2611457341477408E+00   -8.0765033909826822E-01
O2D2   -1.0752292777868215E+01    4.8288288368406357E-01   -1.3182930975588765E+00
HGA3   -1.1919489281975487E+01    3.1609183715408173E+00   -3.7738596663291275E-02
HGA3   -1.1165049554520310E+01    2.0924441778586766E+00    1.2099551971457534E+00
HGA3   -1.2548618791956171E+01    1.3760754750433930E+00    3.7967459950956212E-01
C331   -3.7469404820915910E+00   -1.1133416714565657E+01   -2.9712667288120254E+00
C2O3   -3.2453656395676198E+00   -9.7910740203086792E+00   -2.7006045459861885E+00
O2D2   -2.9624120857067293E+00   -9.3244720270066281E+00   -1.5242808338879914E+00
O2D2   -2.8788267576524458E+00   -9.3964425390510300E+00   -3.7773268468762931E+00
HGA3   -4.2192342317212104E+00   -1.1708176449978698E+01   -2.2149427706704827E+00
HGA3   -2.8585024831382118E+00   -1.1642881302562861E+01   -3.3821196332308703E+00
HGA3   -4.4390526421201786E+00   -1.1069593080514885E+01   -3.8411940672107141E+00
C331   -1.4469461782857527E+00    1.0554181409601904E+00   -1.1827926649422414E+01
C2O3   -1.0564681200180197E+00    1.9335425234567123E+00   -1.0617597425806757E+01
O2D2   -1.4715577798835150E-01    2.8151072704447557E+00   -1.0846409788140882E+01
O2D2   -1.6804506447265597E+00    1.8799235756248764E+00   -9.5363079601366678E+00
HGA3   -2.4882329853616638E+00    1.1894737703738947E+00   -1.2227661769211101E+01
HGA3   -1.3155728034712006E+00    5.4165415662914940E-02   -1.1346636542395174E+01
HGA3   -7.1989453860426111E-01    1.2094990275913207E+00   -1.2650613774910077E+01
C331    1.8193018255352784E+00   -1.8488402583357177E+00   -1.1917197702973292E+01
C2O3    1.1218560552465922E+00   -1.9826468641046349E+00   -1.0563338132679572E+01
O2D2    1.5417734557244327E+00   -1.2681743607010703E+00   -9.6260955760797877E+00
O2D2    1.9658214751808450E-01   -2.7696450127162229E+00   -1.0530076631979933E+01
HGA3    1.9027471925266746E+00   -2.8588209128890267E+00   -1.2382670137517119E+01
HGA3    2.7899303803608362E+00   -1.3122352473533316E+00   -1.1753339830540012E+01
HGA3    1.1150983334864624E+00   -1.1844376164406378E+00   -1.2421443603298883E+01
C331    1.2658412794565281E+01    8.9312501734159699E-01   -1.2166383674031154E+00
C2O3    1.1333423464058601E+01    1.5458423458249873E+00   -1.3699107456331663E+00
O2D2    1.0616195220992351E+01    1.1819915042253664E+00   -3.1509096644441292E-01
O2D2    1.0924407019406251E+01    2.3693062282765429E+00   -2.2028491937144441E+00
HGA3    1.2942232271985851E+01    7.6126637919142504E-01   -1.4219361155436713E-01
HGA3    1.3497430848497361E+01    1.4996185343497155E+00   -1.6919089599187764E+00
HGA3    1.2676357613060015E+01   -7.6121888944363919E-02   -1.7249172840676217E+00
C331   -8.0694404094753047E-01    1.0131768685577036E+00    1.1701969072033151E+01
C2O3   -6.5206834238076916E-01    1.7455058704089970E+00    1.0402810765593790E+01
O2D2    1.1575952435150232E-01    1.3438048624309336E+00    9.4064932499668217E+00