 # Version information for this restart file 
 # current date 2020-03-19 18:02:15.937
 # current working dir /Users/bvanbeek/Documents/GitHub/qmflows/test/test_files/plams_workdir.008/cp2k_mm_md
 # Program compiled at                             Fri Apr 19 11:24:34 CEST 2019
 # Program compiled on                                             192.168.1.124
 # Program compiled for                           Darwin-IntelMacintosh-gfortran
 # Source code revision number                                         svn:18464
 &GLOBAL
   PRINT_LEVEL  LOW
   PROJECT_NAME cp2k
   RUN_TYPE  MD
 &END GLOBAL
 &MOTION
   &MD
     ENSEMBLE  NVT
     STEPS  1000
     TIMESTEP     9.9999999999999989E-01
     STEP_START_VAL  980
     TIME_START_VAL     9.7999999999999181E+02
     ECONS_START_VAL    -1.5079642989833326E+01
     TEMPERATURE     3.0000000000000000E+02
     &THERMOSTAT
       TYPE  CSVR
       &CSVR
         TIMECON     1.2499999999999998E+03
         &THERMOSTAT_ENERGY
               2.0573737278038984E-01
         &END THERMOSTAT_ENERGY
         &RNG_INIT
Wiener process for Thermostat # 1        1 F T F  -6.4227050385864848E-01        2622979708.0        3575004258.0         355387459.0        1718148314.0        2603204772.0        3875230546.0             12345.0             12345.0             12345.0             12345.0             12345.0             12345.0             12345.0             12345.0             12345.0             12345.0             12345.0             12345.0
         &END RNG_INIT
       &END CSVR
     &END THERMOSTAT
     &AVERAGES  T
       &RESTART_AVERAGES
         ITIMES_START  1
         AVECPU     3.6577722448760626E-02
         AVEHUGONIOT     0.0000000000000000E+00
         AVETEMP_BARO     0.0000000000000000E+00
         AVEPOT    -1.5958468724416392E+01
         AVEKIN     7.7903454574013398E-01
         AVETEMP     5.4125271591929732E+02
         AVEKIN_QM     0.0000000000000000E+00
         AVETEMP_QM     0.0000000000000000E+00
         AVEVOL     8.4354182288623776E+05
         AVECELL_A     9.4486306644281683E+01
         AVECELL_B     9.4486306644281683E+01
         AVECELL_C     9.4486306644281683E+01
         AVEALPHA     9.0000000000000171E+01
         AVEBETA     9.0000000000000171E+01
         AVEGAMMA     9.0000000000000171E+01
         AVE_ECONS     6.4095800937511638E-01
         AVE_PRESS     0.0000000000000000E+00
         AVE_PXX     0.0000000000000000E+00
       &END RESTART_AVERAGES
     &END AVERAGES
   &END MD
 &END MOTION
 &FORCE_EVAL
   METHOD  FIST
   &MM
     &FORCEFIELD
       PARMTYPE  CHM
       PARM_FILE_NAME /Users/bvanbeek/Documents/GitHub/qmflows/test/test_files/Cd68Cl26Se55__26_acetate.prm
       VDW_SCALE14     1.0000000000000000E+00
       EI_SCALE14     1.0000000000000000E+00
       SHIFT_CUTOFF  T
       DO_NONBONDED  T
       IGNORE_MISSING_CRITICAL_PARAMS  T
       &SPLINE
         R0_NB     2.5000000000000000E-01
       &END SPLINE
       &NONBONDED
         &LENNARD-JONES
           ATOMS Cd C2O3
           EPSILON     7.7847969578400509E+01
           SIGMA     2.9841000000000002E+00
         &END LENNARD-JONES
         &LENNARD-JONES
           ATOMS Cd C331
           EPSILON     7.7847969578400509E+01
           SIGMA     2.9841000000000002E+00
         &END LENNARD-JONES
         &LENNARD-JONES
           ATOMS Cd Cd
           EPSILON     3.7288523243435542E+01
           SIGMA     1.2340000000000000E+00
         &END LENNARD-JONES
         &LENNARD-JONES
           ATOMS Cd HGA3
           EPSILON     5.0422537503269112E+01
           SIGMA     2.5541999999999998E+00
         &END LENNARD-JONES
         &LENNARD-JONES
           ATOMS Cd O2D2
           EPSILON     2.2056086015651550E+02
           SIGMA     2.4710000000000001E+00
         &END LENNARD-JONES
         &LENNARD-JONES
           ATOMS Cd Se
           EPSILON     1.8312137123193244E+02
           SIGMA     2.9399999999999999E+00
         &END LENNARD-JONES
         &LENNARD-JONES
           ATOMS Se C2O3
           EPSILON     8.7962670215283850E+01
           SIGMA     3.5884999999999998E+00
         &END LENNARD-JONES
         &LENNARD-JONES
           ATOMS Se C331
           EPSILON     8.7962670215283850E+01
           SIGMA     3.5884999999999998E+00
         &END LENNARD-JONES
         &LENNARD-JONES
           ATOMS Se HGA3
           EPSILON     5.6964383686327977E+01
           SIGMA     3.1587000000000001E+00
         &END LENNARD-JONES
         &LENNARD-JONES
           ATOMS Se O2D2
           EPSILON     1.9404122216826917E+02
           SIGMA     3.5259999999999998E+00
         &END LENNARD-JONES
         &LENNARD-JONES
           ATOMS Se Se
           EPSILON     5.1328331590154185E+01
           SIGMA     4.8520000000000003E+00
         &END LENNARD-JONES
       &END NONBONDED
       &CHARGE
         ATOM C2O3
         CHARGE     4.5240000000000002E-01
       &END CHARGE
       &CHARGE
         ATOM Cd
         CHARGE     9.7680000000000000E-01
       &END CHARGE
       &CHARGE
         ATOM O2D2
         CHARGE    -4.7039999999999998E-01
       &END CHARGE
       &CHARGE
         ATOM Se
         CHARGE    -9.7680000000000000E-01
       &END CHARGE
     &END FORCEFIELD
     &POISSON
       PERIODIC  NONE
       &EWALD
         EWALD_TYPE  NONE
       &END EWALD
     &END POISSON
     &PRINT
       &FF_INFO  LOW
         SPLINE_INFO  F
         SPLINE_DATA  F
       &END FF_INFO
     &END PRINT
   &END MM
   &SUBSYS
     &CELL
       A     5.0000000000000007E+01    0.0000000000000000E+00    0.0000000000000000E+00
       B     0.0000000000000000E+00    5.0000000000000007E+01    0.0000000000000000E+00
       C     0.0000000000000000E+00    0.0000000000000000E+00    5.0000000000000007E+01
       PERIODIC  NONE
       MULTIPLE_UNIT_CELL  1 1 1
     &END CELL
     &COORD
Cd   -2.6559282288508235E+00   -1.1694455573851965E+00   -4.6208159507290398E+00
Cd   -2.5521560241179913E+00   -4.3035866669662299E+00   -1.1361191791375269E+00
Cd   -5.0516736339920003E+00   -3.7446634633112863E-01   -4.5521303875967667E-01
Cd    8.2916583421412260E-01    8.4397026613336701E-01   -5.3100443932714496E+00
Cd    8.3929243262283060E-01   -1.8526514548548474E+00   -2.0262474879983881E+00
Cd   -1.4537806922519316E+00    2.1177943825330403E+00   -1.6685409504883948E+00
Cd    5.2130900071074049E-01   -5.0017876636349552E+00    1.2891308657734839E+00
Cd   -1.3692999740063749E+00   -1.1606779532503333E+00    1.8318817465341497E+00
Cd   -3.8583352195916163E+00    2.7595984780004250E+00    2.0688104145153083E+00
Cd    4.4315111616003868E+00    1.9804726744762599E-01   -2.1465372959274300E+00
Cd    2.4417212431453734E+00    4.3666517609180282E+00   -2.2923011074408706E+00
Cd    4.5662837320597758E+00   -2.6818123338789026E+00    8.6780823635500859E-01
Cd    2.0604975096678735E+00    1.0992495597413316E+00    1.1321067112962249E+00
Cd   -2.3140747927145436E-01    4.7659032440814713E+00    1.5734963503591237E+00
Cd    2.3194825507037402E+00   -1.2697518358648634E+00    4.5675198762038702E+00
Cd   -1.6956470502509527E-01    2.1850393722533541E+00    4.6716926945744266E+00
Se   -1.1166310804998685E+00   -3.1476032362427535E+00   -3.1827081421299370E+00
Se   -3.5891092418694077E+00    5.9378840356341422E-01   -2.9438459453353509E+00
Se   -3.5987416027971992E+00   -2.0219870177652508E+00    6.7727045341969594E-01
Se    2.3507110740549386E+00   -5.6105533565702226E-01   -3.6193922166355343E+00
Se    4.7903255539603257E-01    2.9362289007975555E+00   -3.6644032578277699E+00
Se    2.2136698350222148E+00   -3.6663066877625896E+00   -2.1138949059374398E-01
Se   -1.4895913835693192E-01    1.6105037693172794E-01   -1.1780942981654728E-01
Se   -2.3784177250512823E+00    3.7836633231294377E+00    1.2926605807494315E-01
Se    2.1169896221390583E-01   -2.9526227775994442E+00    2.9673930401441466E+00
Se   -2.5355074193779603E+00    1.0288912510311374E+00    3.5840215696849986E+00
Se    3.9000886818019738E+00    2.2615187056190962E+00   -6.4331964821619603E-01
Se    3.8790552956834374E+00   -7.4952531963992342E-01    2.5926463393434180E+00
Se    1.4429818364809401E+00    3.0759585089876937E+00    2.7649711608357399E+00
Cd   -4.4757246329055267E+00   -4.4340251717196946E+00   -7.0354987601936516E+00
Cd   -6.3250110351235183E+00   -5.1483214255310450E-01   -6.7748469341398962E+00
Cd   -4.1253239335367224E+00   -7.2712152068521352E+00   -3.7071816708263232E+00
Cd   -5.9369134019614869E+00   -3.5127650525660732E+00   -3.1431000314603339E+00
Cd   -8.5614756460260359E+00    6.0508759042910032E-01   -2.8942367764987051E+00
Cd   -6.3768511249389919E+00   -6.6345688037544575E+00   -1.9107941026734565E-01
Cd   -8.8258077486682023E+00   -2.6842741877920200E+00    4.1344222649720247E-01
Cd   -7.2570195670917370E-01   -2.5618652666503636E+00   -8.0010954179197338E+00
Cd   -2.8666909949287800E+00    1.6712329004308502E+00   -7.6437339968318438E+00
Cd   -6.8484839074076820E-01   -5.2574658548304427E+00   -4.8605427825370455E+00
Cd   -5.2524438089733971E+00    2.8904522781947146E+00   -4.1673094849267676E+00
Cd   -6.4291849330975859E-01   -8.1354639212831863E+00   -1.2023761643084725E+00
Cd   -7.4936636703617125E+00    3.0543316033542163E+00   -5.6718552151223245E-01
Cd   -3.3517261855335554E+00   -7.1323415687539473E+00    2.4805328150352541E+00
Cd   -5.9887955635249597E+00   -3.4722283402606404E+00    2.7547907090660071E+00
Cd   -7.2140485462041486E+00    5.4425798535962899E-01    3.2406934033685766E+00
Cd    3.0410497768500746E+00   -3.1492550637970756E-01   -8.0341941532144361E+00
Cd    5.3957141435583700E-01    3.3059721618500451E+00   -8.6064638053854043E+00
Cd    3.3641227378096077E+00   -3.1187345938788549E+00   -5.6108181827952164E+00
Cd   -1.1979483426810096E+00    4.8546449210683660E+00   -4.9392794494641841E+00
Cd    3.1785085036175342E+00   -6.4376631383498495E+00   -2.7526854105538359E+00
Cd   -4.0790598898615817E+00    5.8984062480135719E+00   -1.2067473217911211E+00
Cd    2.7713768064980644E+00   -8.6470581284010724E+00    1.1878248408518695E+00
Cd   -6.2321698963821017E+00    5.8705023448441418E+00    2.1515779214024136E+00
Cd    3.4011627447833204E-01   -7.6887441454404097E+00    4.9207243878997176E+00
Cd   -2.0070834824677033E+00   -4.1062829436516237E+00    5.3583605628361486E+00
Cd   -4.0426739050360068E+00   -4.8606013294229800E-01    6.1090574631964838E+00
Cd   -6.2379694063951616E+00    3.3236068494087423E+00    5.8295451098135702E+00
Cd    7.0136395044386894E+00   -1.0834418958223091E+00   -5.5648184842657455E+00
Cd    4.5546913400605424E+00    3.0317478209893403E+00   -5.1214793446624816E+00
Cd    1.8156562438008597E+00    6.8604759911976050E+00   -5.0808984847909944E+00
Cd    6.7900491963356435E+00   -3.5955710875404501E+00   -2.8609678680409019E+00
Cd   -7.1285473165380669E-02    8.1984428804742890E+00   -1.8252144658788927E+00
Cd    6.5074418308297535E+00   -6.0898543897762130E+00   -5.2026406736595414E-02
Cd   -2.5904027929549396E+00    8.9315242476020860E+00    1.7450651824227226E+00
Cd    3.4497372250927523E+00   -4.4897461852623319E+00    3.3769157810263177E+00
Cd   -2.4397752097449885E+00    5.0918483683838449E+00    4.7581822405569403E+00
Cd    1.6236580607434410E+00   -4.1996856971001790E+00    7.5265566018269192E+00
Cd    1.1758367134404883E-01   -5.9882754622944734E-01    8.2900071857031499E+00
Cd   -2.5119472184602616E+00    2.5678085086136315E+00    8.4179632055617688E+00
Cd    8.3932914324783976E+00    2.3760397004273845E+00   -2.8841828173813808E+00
Cd    5.8403617479772620E+00    6.5255663095318486E+00   -2.6783143972678389E+00
Cd    8.3717906623185794E+00   -2.1164104885744525E-01   -1.6941961628410284E-02
Cd    6.1342893400237397E+00    3.6639887207659676E+00    4.3348774026573372E-01
Cd    3.5332396073179178E+00    7.3677470777139193E+00    1.0308681063936935E+00
Cd    7.9301835485840408E+00   -3.5341198085059262E+00    3.2670308170437430E+00
Cd    5.9133823099907952E+00    8.2091122679593898E-01    3.7612296743896287E+00
Cd    4.0040644771520464E+00    4.4294652729098383E+00    4.1489356195684532E+00
Cd    9.0855047353935803E-01    7.7651218469294108E+00    4.2648082300666834E+00
Cd    5.4311764525659552E+00   -1.6277372663954104E+00    6.8214216394270100E+00
Cd    3.5215329297105185E+00    2.3502016199956888E+00    7.7765683401510719E+00
Cd    8.7999340128360337E-01    5.3213892318182436E+00    7.0841527934871644E+00
Se   -3.1483209052323100E+00   -6.2414788334919065E+00   -5.9719313673052170E+00
Se   -5.0793375839694059E+00   -2.4768199480247017E+00   -5.3663734114085626E+00
Se   -7.1017208644240668E+00    1.2049214779445492E+00   -4.9043426654779596E+00
Se   -4.6607219140519716E+00   -5.4441061084906792E+00   -1.9011883474508677E+00
Se   -7.4152464919166565E+00   -1.7437202454761329E+00   -1.6208858033167644E+00
Se   -7.7417046171133510E+00   -4.8952393488279311E+00    1.2043651291355832E+00
Se    9.9532090486035962E-01   -3.6638743248992265E+00   -6.4549717909872832E+00
Se   -1.1274971398209210E+00   -1.4856086160759188E-01   -6.7474147037566023E+00
Se   -3.4437110869363092E+00    3.6037821736117031E+00   -5.8914296696928057E+00
Se    6.6590833520796155E-01   -6.9951717421310624E+00   -3.0444286258360589E+00
Se   -5.7578664419352172E+00    4.3217078180909576E+00   -2.0873216348365555E+00
Se   -1.4618415550249741E+00   -6.3918471543172650E+00    5.0405559836244418E-01
Se   -6.1021730754037540E+00    1.6326080338737465E+00    1.1417731623767415E+00
Se   -4.0116722035589207E+00   -5.1245202890290251E+00    4.0032640667900674E+00
Se   -6.0975652780075382E+00   -1.3958981424634331E+00    4.6558053707670828E+00
Se    5.0319479110895831E+00   -1.5385208034973987E+00   -7.0521792828353131E+00
Se    2.3816419029423428E+00    2.0047959067360983E+00   -7.3473852076098201E+00
Se    5.0630970456373070E-01    5.8368730601243302E+00   -6.9525813111887222E+00
Se    4.7224955622927176E+00   -4.7410774283095805E+00   -4.1430415109205114E+00
Se   -1.8189882148868510E+00    6.7264073524597991E+00   -3.0057219529247865E+00
Se    4.3731855821455232E+00   -7.6828167308891047E+00   -6.1721331192071127E-01
Se   -4.8420087521733102E+00    7.6005639406444336E+00    8.4385443932491189E-01
Se    2.0755866337724953E+00   -6.7264887893767806E+00    3.1871485071674002E+00
Se   -4.9079276793183668E+00    4.6213388489980742E+00    3.9039661009994613E+00
Se   -1.9668908007637717E-01   -5.6723267150742442E+00    6.5888138442176984E+00
Se   -1.8666435603310505E+00   -1.7081903359359922E+00    6.6361638734400179E+00
Se   -4.6553475289023698E+00    1.9356217697133566E+00    7.2472758662745429E+00
Se    6.5003717733983217E+00    1.2330802059863741E+00   -4.2957035510130552E+00
Se    3.9840153248690582E+00    5.3094482139260633E+00   -4.0845138026893464E+00
Se    5.9730385394875265E+00   -1.7095578364367492E+00   -1.0982459260894033E+00
Se    2.0979944612264156E+00    6.3348573232918941E+00   -6.3024386969631818E-01
Se    5.7679088497382782E+00   -4.9158809651127440E+00    2.1613708472040041E+00
Se   -1.2266602711745267E+00    6.9362005575013974E+00    2.9760669446189767E+00
Se    3.4636831160503361E+00   -3.3687749844887818E+00    5.8524227584147948E+00
Se    1.3780914424083694E+00    4.6840974244629091E-01    6.3007321828923040E+00
Se   -1.0491898077606716E+00    3.8213735215187037E+00    6.5155732950560417E+00
Se    7.2712481181810986E+00    4.4510399422271449E+00   -1.9222756277361479E+00
Se    7.1382844953366806E+00    1.6293125647025415E+00    1.6413246179381096E+00
Se    5.0466078476887049E+00    5.6095851278589253E+00    2.0165892872273954E+00
Se    7.3704678002619044E+00   -2.0098430870983921E+00    5.3073587009536292E+00
Se    4.6572841765702622E+00    2.3443134959180787E+00    5.4902755050254388E+00
Se    2.4345598499058791E+00    6.4094878422526333E+00    5.4912935497414139E+00
C331   -2.2515471664166382E+00    9.4187706271752774E+00    6.4204121445178846E+00
C2O3   -2.0916970483105271E+00    7.8662247844900923E+00    6.3898101331706254E+00
O2D2   -8.9051092377907648E-01    7.4883999405224992E+00    6.6905355738262875E+00
O2D2   -3.0540997625876045E+00    7.1223685782259940E+00    6.1193872106434259E+00
HGA3   -2.1424736216520186E+00    9.6747213247490862E+00    7.5023694032512216E+00
HGA3   -3.2695164276512916E+00    9.5439811422784064E+00    6.0109139936778098E+00
HGA3   -1.3704176127381631E+00    9.7848254831028321E+00    5.8933145014871071E+00
C331    2.9569131397865549E+00    1.0756372255645360E+01   -3.3364371164606750E+00
C2O3    2.3843600823824258E+00    9.4225788020613699E+00   -3.7808682318703895E+00
O2D2    3.1586454912235906E+00    8.7199120326906669E+00   -4.5351053570236317E+00
O2D2    1.2433023529801512E+00    9.1438265963668464E+00   -3.4148067401700595E+00
HGA3    3.3938094234595022E+00    1.1398877772281455E+01   -4.1558213096137688E+00
HGA3    3.7326251433392224E+00    1.0520275954008460E+01   -2.5393821564281520E+00
HGA3    2.1716172452813218E+00    1.1366434384197730E+01   -2.8599651170663316E+00
C331   -5.1398474414738047E+00   -3.8230198785406372E-01   -1.0663692197492665E+01
C2O3   -5.4661345900164404E+00   -6.8588781211203875E-02   -9.2346279952589594E+00
O2D2   -6.7227238531521225E+00   -5.7654306176224142E-02   -8.8816671675541699E+00
O2D2   -4.5394707351710730E+00    2.4647236963230873E-01   -8.5176141982372613E+00
HGA3   -4.9568471675934278E+00    5.2907734502129000E-01   -1.1248504047160216E+01
HGA3   -5.9715607471891294E+00   -9.0517492006526601E-01   -1.1152702829862109E+01
HGA3   -4.2637912558830067E+00   -9.8505667151385434E-01   -1.0778333030665500E+01
C331   -1.2551011845060187E+00   -4.0317335059194397E+00    9.8135184578786205E+00
C2O3   -2.0519443765097706E-01   -2.8958276840120662E+00    9.7617423949057702E+00
O2D2   -7.1358471009759872E-01   -1.8112261982966553E+00    1.0229642917459234E+01
O2D2    9.5431289583610768E-01   -2.9983525308091203E+00    9.3957949417772006E+00
HGA3   -1.7107531323922547E+00   -4.2194701530023249E+00    8.8358997184819490E+00
HGA3   -2.1035214335551022E+00   -3.7469666951459111E+00    1.0474025378475302E+01
HGA3   -8.6902609859407864E-01   -4.9529184943597242E+00    1.0277673882747990E+01
C331   -9.0707604350697117E+00   -6.3425741901405388E+00   -5.3432284440502977E+00
C2O3   -7.8268377978533241E+00   -6.0091234202240438E+00   -4.5520938998317266E+00
O2D2   -7.0568527464930888E+00   -6.9847112513012908E+00   -4.2440432209758097E+00
O2D2   -7.6590620799104254E+00   -4.8427580922453570E+00   -4.3197729195354322E+00
HGA3   -8.7708877010619783E+00   -6.9048726512222647E+00   -6.3041114520930197E+00
HGA3   -9.6208225909298299E+00   -5.4160355717673294E+00   -5.6633587860819121E+00
HGA3   -9.7954064892226000E+00   -6.8670929839426096E+00   -4.6817478921578051E+00
C331    1.1942225170013810E+01   -1.8556130732791516E+00    1.8256445187586090E+00
C2O3    1.0578987332551762E+01   -2.4470247995149976E+00    1.8231596718798611E+00
O2D2    1.0504910825637253E+01   -3.5618655236405274E+00    2.4809691276168198E+00
O2D2    9.6868336720324102E+00   -1.9392884292659547E+00    1.1073834537735106E+00
HGA3    1.2590464370548810E+01   -2.4037940021558413E+00    1.0820235587276188E+00
HGA3    1.2583632838105153E+01   -1.8393439288060676E+00    2.7272473403868109E+00
HGA3    1.1749915037799209E+01   -8.1284868594314552E-01    1.4698560808713050E+00
C331   -1.0797354212819666E+01    2.9924148443045220E+00    4.4513174145630385E+00
C2O3   -9.3301400922841307E+00    2.5291136723865155E+00    4.3403582029180559E+00
O2D2   -8.6281822391822907E+00    2.4919059947374578E+00    5.4158524248042106E+00
O2D2   -8.8186658229986499E+00    2.2718780672299137E+00    3.2064677433354429E+00
HGA3   -1.1307517258235398E+01    1.9875271055929438E+00    4.4870343039435534E+00
HGA3   -1.1034642558618822E+01    3.5916258038198170E+00    3.5323142596820967E+00
HGA3   -1.0947395225827236E+01    3.6235162908261125E+00    5.3488871910265603E+00
C331    2.2062692427098187E+00    1.1316219177302523E+01    2.1531029984197776E+00
C2O3    1.6547594984928526E+00    9.9325318852428222E+00    2.5107542172238175E+00
O2D2    4.2463418974096734E-01    1.0041512377625661E+01    2.9382576433606244E+00
O2D2    2.3922885479344931E+00    8.9562150824187459E+00    2.4633837215375971E+00
HGA3    1.5593627061448654E+00    1.1599360490078681E+01    1.3457396228915157E+00
HGA3    3.2159891447135895E+00    1.1205707564569737E+01    1.6917567831473357E+00
HGA3    2.0710290801524636E+00    1.2071488111318139E+01    2.9747333975200623E+00
C331   -2.7902787448383388E+00   -1.0628206856229687E+01    3.6599468924209693E+00
C2O3   -1.8601227246136911E+00   -9.4494344543964957E+00    3.8929165993954453E+00
O2D2   -6.3025266748181052E-01   -9.7811064686972582E+00    4.0455988413232316E+00
O2D2   -2.2062145011320839E+00   -8.2618790775506774E+00    4.0114562469175477E+00
HGA3   -3.7390024504050117E+00   -1.0112122213194576E+01    3.5196525063297468E+00
HGA3   -2.8168177924651658E+00   -1.1229380855212868E+01    4.5771580338711706E+00
HGA3   -2.5683719179638489E+00   -1.1289014423455692E+01    2.8379470372354674E+00
C331    2.4269610799971444E+00    5.0652609906744948E+00    1.0881864107963313E+01
C2O3    2.5576206072925629E+00    4.4630849511094528E+00    9.5436792785251932E+00
O2D2    1.4681688093306589E+00    4.1956857116864157E+00    8.9151839866556148E+00
O2D2    3.6751688026127391E+00    4.1598167551232095E+00    9.1980901906411585E+00
HGA3    1.4680534914117860E+00    5.4027383971493235E+00    1.1079928257661674E+01
HGA3    3.0845724895479254E+00    5.9560703929560184E+00    1.0834535402749591E+01
HGA3    2.6609905547420225E+00    4.3809166647925304E+00    1.1729829113074979E+01
C331   -1.3712948694582958E+00    1.2008614444276578E+01   -5.7296904928470604E-01
C2O3   -1.4711878190038130E+00    1.0613678305252225E+01   -3.2228252121331025E-01
O2D2   -4.0112221529603009E-01    9.9287505247015702E+00   -2.3768896362140357E-01
O2D2   -2.6875930056744481E+00    1.0272996269555028E+01   -2.1453867218983520E-02
HGA3   -2.0593074301140528E+00    1.2168607431584839E+01   -1.3706179859905345E+00
HGA3   -3.3048751025536094E-01    1.2373989800631215E+01   -8.1559645313149876E-01
HGA3   -1.6356707118590377E+00    1.2716988845070015E+01    3.3410301086868360E-01
C331   -3.3722088037136193E+00   -4.1657554703740471E+00   -1.1387647344584309E+01
C2O3   -3.4211516981312635E+00   -3.7957059149885031E+00   -9.8918559270994653E+00
O2D2   -4.3784620414918862E+00   -4.3636029421998517E+00   -9.2739664297602538E+00
O2D2   -2.5798778907303359E+00   -3.0005124468435271E+00   -9.3790058296262089E+00
HGA3   -3.8755194519673588E+00   -3.4257526620825414E+00   -1.2037444567480550E+01
HGA3   -3.9168183539804220E+00   -5.0879494443588120E+00   -1.1438065904493978E+01
HGA3   -2.3473071932884735E+00   -4.2453243948143236E+00   -1.1855748013877626E+01
C331   -6.8355215271596999E+00   -1.0016796262978001E+01    1.1783764133733163E+00
C2O3   -5.8138806239894691E+00   -8.9467473572618363E+00    7.3696967961401605E-01
O2D2   -5.1921384636232766E+00   -8.2909161605819879E+00    1.6453224378411908E+00
O2D2   -5.7386874492454876E+00   -8.7394022398836988E+00   -4.8158827951686545E-01
HGA3   -6.7360649630012288E+00   -1.1015029096929617E+01    6.7454083630455364E-01
HGA3   -7.8311956269283458E+00   -9.6239659095293089E+00    8.0111527176554054E-01
HGA3   -6.9428030280378916E+00   -1.0032557581274597E+01    2.2738177353471420E+00
C331   -1.0051867579762837E+01   -1.7701818708580126E+00    4.2575879745102290E+00
C2O3   -9.6997653913078423E+00   -1.5222393234410796E+00    2.7851009786464966E+00
O2D2   -1.0313529606910690E+01   -2.2110764366199813E+00    1.8917343152473156E+00
O2D2   -8.7980694657640495E+00   -7.2546065670450610E-01    2.5147602057418550E+00
HGA3   -1.1065251377802667E+01   -2.1764856573141604E+00    4.3850655289492870E+00
HGA3   -9.9182209809335529E+00   -7.7793504136843816E-01    4.7479364786892644E+00
HGA3   -9.3635230275792818E+00   -2.4776114721865530E+00    4.7368197257512046E+00
C331    4.8349290147722810E+00   -1.8149071577946652E-01    1.0975742928305035E+01
C2O3    4.6314045512687114E+00   -5.8791288156213395E-01    9.4845042356938425E+00
O2D2    4.6714429531134769E+00    3.9713627852272942E-01    8.6868743238871104E+00
O2D2    4.4965261980636049E+00   -1.7240783445713619E+00    9.1182463264046962E+00
HGA3    5.8172318116591670E+00    3.5289947126969523E-01    1.0973503949745732E+01
HGA3    4.8377527205733113E+00   -1.1091048451475296E+00    1.1617565234672091E+01
HGA3    4.0109703044170049E+00    4.8825734163348899E-01    1.1236722169185942E+01
C331    9.7909602272353542E+00   -6.0322456837616407E+00   -2.9129409543452085E+00
C2O3    8.8602241967775157E+00   -6.0495711665661336E+00   -1.6484113701673526E+00
O2D2    8.2093181495206142E+00   -4.9476711110526281E+00   -1.4077715859556692E+00
O2D2    8.8038042436719248E+00   -7.0510162351604393E+00   -9.8203993878026896E-01
HGA3    9.2807666056553106E+00   -6.0169103140623639E+00   -3.9181970265040924E+00
HGA3    1.0383128832116485E+01   -6.9194845286008562E+00   -2.8017953644223215E+00
HGA3    1.0499404431687429E+01   -5.1573626400721588E+00   -2.8973297767054791E+00
C331   -2.4622049629887602E-01   -1.1602251109390977E+01    7.4492424556330494E-01
C2O3    9.0314895330988487E-01   -1.0782721652145490E+01    3.5906569998598892E-01
O2D2    2.0349415326161395E+00   -1.1345369450907864E+01    1.2817700167486937E-01
O2D2    7.0190906545572451E-01   -9.5881954739815480E+00    2.4651756296802302E-01
HGA3    7.1209803514738823E-02   -1.2652913022114220E+01    8.8233621709171228E-01
HGA3   -8.9512257470311718E-01   -1.1631592625074296E+01   -8.5900439494496356E-02
HGA3   -8.1476455986296292E-01   -1.1168986385794616E+01    1.5507858219626045E+00
C331    1.0295111056570978E+01   -2.3441134005775943E+00   -2.9327811571077738E+00
C2O3    9.1953822416477582E+00   -1.4003307734380575E+00   -3.1143344248924385E+00
O2D2    9.1970576525735641E+00   -3.5291343127089181E-01   -2.3864808459291087E+00
O2D2    8.3191860991373048E+00   -1.7646665808547417E+00   -3.9468009447344503E+00
HGA3    1.0845193518737885E+01   -2.1489555134026364E+00   -2.0003694399396563E+00
HGA3    1.1022814129228724E+01   -2.2948493900843943E+00   -3.7963662113673289E+00
HGA3    9.7875754918424729E+00   -3.3495413187932783E+00   -2.9413338665322790E+00
C331    7.0274634277230312E+00    9.9560615077603192E+00   -3.9092953431126155E-02
C2O3    6.5520710313729493E+00    8.6876862292841288E+00   -7.1739333812827721E-01
O2D2    5.3471771534800459E+00    8.2982260317018159E+00   -4.6131887883689399E-01
O2D2    7.2895306696960445E+00    8.1532698901909537E+00   -1.5052150793719239E+00
HGA3    6.2228148116992763E+00    1.0389390315872065E+01    6.2465314467833211E-01
HGA3    7.2825407340983386E+00    1.0748316606523209E+01   -7.4461688642035118E-01
HGA3    7.9319549413249408E+00    9.7411391888904024E+00    5.7577669049665969E-01
C331   -1.1562992525832085E+01    1.8582452769371149E+00    2.8178229941928651E-01
C2O3   -1.0503628519957880E+01    1.4359867587225930E+00   -6.9247283258801828E-01
O2D2   -9.4530904881386917E+00    2.1859015068164549E+00   -6.5356406605341322E-01
O2D2   -1.0677986129540452E+01    4.9074214882449163E-01   -1.4413114819497519E+00
HGA3   -1.1803417519465443E+01    2.9440981915759341E+00    8.3990847062364205E-02
HGA3   -1.1366817337153718E+01    1.8477021879808950E+00    1.3667164570851360E+00
HGA3   -1.2391792806129814E+01    1.1430456165870051E+00    6.8264834815011791E-02
C331   -3.6239419792975101E+00   -1.1300819509596655E+01   -2.9506936354549911E+00
C2O3   -3.0371999341964395E+00   -9.8831810088217118E+00   -2.7423673840475860E+00
O2D2   -3.0495972194271190E+00   -9.4302495047490069E+00   -1.5079465742757650E+00
O2D2   -2.8564192078509678E+00   -9.1512601696664024E+00   -3.7170777637612611E+00
HGA3   -4.0801063507447690E+00   -1.1561627672334135E+01   -1.9131457124659312E+00
HGA3   -2.8313366700460985E+00   -1.2074402538496505E+01   -3.2570529193102851E+00
HGA3   -4.4594400211231262E+00   -1.1237880800498122E+01   -3.6963559915047726E+00
C331   -1.5615830386578256E+00    1.0295924416083417E+00   -1.1562456153158919E+01
C2O3   -1.2539670728004468E+00    2.1223716440978135E+00   -1.0657602199562540E+01
O2D2   -2.3605327457802056E-01    2.8516927630719642E+00   -1.0906353059957707E+01
O2D2   -1.8455342799367112E+00    2.0399796718813286E+00   -9.5803507707969739E+00
HGA3   -2.5753945161715119E+00    1.3050684439483591E+00   -1.1880236000533356E+01
HGA3   -1.4133942321382353E+00    2.3499391731486238E-02   -1.1167103783982403E+01
HGA3   -9.4047147953192978E-01    1.0295898346992760E+00   -1.2488121871762628E+01
C331    1.8788709514871744E+00   -1.8645518551682330E+00   -1.1982855129535661E+01
C2O3    1.1982330964331218E+00   -1.9876638239348032E+00   -1.0612916020745420E+01
O2D2    1.6389927732594818E+00   -1.2892460786208506E+00   -9.6530930748681119E+00
O2D2    2.5382331478155101E-01   -2.7824469677292942E+00   -1.0642009277157392E+01
HGA3    2.4405660439623817E+00   -2.8008261081198569E+00   -1.2103542643552442E+01
HGA3    2.5801564747389771E+00   -9.9975475744460884E-01   -1.1951110574210086E+01
HGA3    1.1310367244984090E+00   -1.9439025271779300E+00   -1.2822037160870812E+01
C331    1.2714185267927379E+01    8.1864226402683238E-01   -1.3681612825219596E+00
C2O3    1.1398077564928867E+01    1.5227699578168599E+00   -1.3967036542310944E+00
O2D2    1.0622467607085055E+01    1.2625570828583961E+00   -3.4950382674183683E-01
O2D2    1.1043458537648437E+01    2.1875531214444992E+00   -2.3670167500000536E+00
HGA3    1.3029714569055290E+01    3.7865308064896375E-01   -3.6265317126023927E-01
HGA3    1.3500744667324383E+01    1.5375449743734979E+00   -1.6143672849385611E+00
HGA3    1.2899115545852704E+01    4.1284103681274192E-02   -2.1746368188377452E+00
C331   -6.8725680249861687E-01    1.2235328150662637E+00    1.1757695861195316E+01
C2O3   -5.6997739430089089E-01    1.8050666141833598E+00    1.0369474096915654E+01
O2D2    2.0815031561200620E-01    1.3084717496389826E+00    9.4448744156552191E+00