 # Version information for this restart file 
 # current date 2020-03-19 18:02:14.241
 # current working dir /Users/bvanbeek/Documents/GitHub/qmflows/test/test_files/plams_workdir.008/cp2k_mm_md
 # Program compiled at                             Fri Apr 19 11:24:34 CEST 2019
 # Program compiled on                                             192.168.1.124
 # Program compiled for                           Darwin-IntelMacintosh-gfortran
 # Source code revision number                                         svn:18464
 &GLOBAL
   PRINT_LEVEL  LOW
   PROJECT_NAME cp2k
   RUN_TYPE  MD
 &END GLOBAL
 &MOTION
   &MD
     ENSEMBLE  NVT
     STEPS  1000
     TIMESTEP     9.9999999999999989E-01
     STEP_START_VAL  940
     TIME_START_VAL     9.3999999999999000E+02
     ECONS_START_VAL    -1.5079642989833326E+01
     TEMPERATURE     3.0000000000000000E+02
     &THERMOSTAT
       TYPE  CSVR
       &CSVR
         TIMECON     1.2499999999999998E+03
         &THERMOSTAT_ENERGY
               2.0741616676222929E-01
         &END THERMOSTAT_ENERGY
         &RNG_INIT
Wiener process for Thermostat # 1        1 F T F   4.1291165129423885E-01        1179154719.0        2728727829.0         149333472.0        1919259098.0        3880022067.0         489117022.0             12345.0             12345.0             12345.0             12345.0             12345.0             12345.0             12345.0             12345.0             12345.0             12345.0             12345.0             12345.0
         &END RNG_INIT
       &END CSVR
     &END THERMOSTAT
     &AVERAGES  T
       &RESTART_AVERAGES
         ITIMES_START  1
         AVECPU     3.6330547872336298E-02
         AVEHUGONIOT     0.0000000000000000E+00
         AVETEMP_BARO     0.0000000000000000E+00
         AVEPOT    -1.5953745104677251E+01
         AVEKIN     7.7891843300236807E-01
         AVETEMP     5.4117204384254285E+02
         AVEKIN_QM     0.0000000000000000E+00
         AVETEMP_QM     0.0000000000000000E+00
         AVEVOL     8.4354182288623753E+05
         AVECELL_A     9.4486306644281782E+01
         AVECELL_B     9.4486306644281782E+01
         AVECELL_C     9.4486306644281782E+01
         AVEALPHA     9.0000000000000099E+01
         AVEBETA     9.0000000000000099E+01
         AVEGAMMA     9.0000000000000099E+01
         AVE_ECONS     6.4073536421852295E-01
         AVE_PRESS     0.0000000000000000E+00
         AVE_PXX     0.0000000000000000E+00
       &END RESTART_AVERAGES
     &END AVERAGES
   &END MD
 &END MOTION
 &FORCE_EVAL
   METHOD  FIST
   &MM
     &FORCEFIELD
       PARMTYPE  CHM
       PARM_FILE_NAME /Users/bvanbeek/Documents/GitHub/qmflows/test/test_files/Cd68Cl26Se55__26_acetate.prm
       VDW_SCALE14     1.0000000000000000E+00
       EI_SCALE14     1.0000000000000000E+00
       SHIFT_CUTOFF  T
       DO_NONBONDED  T
       IGNORE_MISSING_CRITICAL_PARAMS  T
       &SPLINE
         R0_NB     2.5000000000000000E-01
       &END SPLINE
       &NONBONDED
         &LENNARD-JONES
           ATOMS Cd C2O3
           EPSILON     7.7847969578400509E+01
           SIGMA     2.9841000000000002E+00
         &END LENNARD-JONES
         &LENNARD-JONES
           ATOMS Cd C331
           EPSILON     7.7847969578400509E+01
           SIGMA     2.9841000000000002E+00
         &END LENNARD-JONES
         &LENNARD-JONES
           ATOMS Cd Cd
           EPSILON     3.7288523243435542E+01
           SIGMA     1.2340000000000000E+00
         &END LENNARD-JONES
         &LENNARD-JONES
           ATOMS Cd HGA3
           EPSILON     5.0422537503269112E+01
           SIGMA     2.5541999999999998E+00
         &END LENNARD-JONES
         &LENNARD-JONES
           ATOMS Cd O2D2
           EPSILON     2.2056086015651550E+02
           SIGMA     2.4710000000000001E+00
         &END LENNARD-JONES
         &LENNARD-JONES
           ATOMS Cd Se
           EPSILON     1.8312137123193244E+02
           SIGMA     2.9399999999999999E+00
         &END LENNARD-JONES
         &LENNARD-JONES
           ATOMS Se C2O3
           EPSILON     8.7962670215283850E+01
           SIGMA     3.5884999999999998E+00
         &END LENNARD-JONES
         &LENNARD-JONES
           ATOMS Se C331
           EPSILON     8.7962670215283850E+01
           SIGMA     3.5884999999999998E+00
         &END LENNARD-JONES
         &LENNARD-JONES
           ATOMS Se HGA3
           EPSILON     5.6964383686327977E+01
           SIGMA     3.1587000000000001E+00
         &END LENNARD-JONES
         &LENNARD-JONES
           ATOMS Se O2D2
           EPSILON     1.9404122216826917E+02
           SIGMA     3.5259999999999998E+00
         &END LENNARD-JONES
         &LENNARD-JONES
           ATOMS Se Se
           EPSILON     5.1328331590154185E+01
           SIGMA     4.8520000000000003E+00
         &END LENNARD-JONES
       &END NONBONDED
       &CHARGE
         ATOM C2O3
         CHARGE     4.5240000000000002E-01
       &END CHARGE
       &CHARGE
         ATOM Cd
         CHARGE     9.7680000000000000E-01
       &END CHARGE
       &CHARGE
         ATOM O2D2
         CHARGE    -4.7039999999999998E-01
       &END CHARGE
       &CHARGE
         ATOM Se
         CHARGE    -9.7680000000000000E-01
       &END CHARGE
     &END FORCEFIELD
     &POISSON
       PERIODIC  NONE
       &EWALD
         EWALD_TYPE  NONE
       &END EWALD
     &END POISSON
     &PRINT
       &FF_INFO  LOW
         SPLINE_INFO  F
         SPLINE_DATA  F
       &END FF_INFO
     &END PRINT
   &END MM
   &SUBSYS
     &CELL
       A     5.0000000000000007E+01    0.0000000000000000E+00    0.0000000000000000E+00
       B     0.0000000000000000E+00    5.0000000000000007E+01    0.0000000000000000E+00
       C     0.0000000000000000E+00    0.0000000000000000E+00    5.0000000000000007E+01
       PERIODIC  NONE
       MULTIPLE_UNIT_CELL  1 1 1
     &END CELL
     &COORD
Cd   -2.6119509122524360E+00   -1.2075350553235857E+00   -4.6521381768471350E+00
Cd   -2.6006951653968629E+00   -4.2359388854776379E+00   -1.1935480967805456E+00
Cd   -5.0070752944641734E+00   -3.3908092223503811E-01   -4.0331240213414898E-01
Cd    9.4409507646346025E-01    9.0061404324294958E-01   -5.2374253251067975E+00
Cd    9.5793563823725114E-01   -1.9919292509401509E+00   -2.0364040422484484E+00
Cd   -1.5660675913455990E+00    2.1038021555030988E+00   -1.5097617235322518E+00
Cd    5.2488208654523416E-01   -5.1100015929054505E+00    1.4087388583782727E+00
Cd   -1.5826238318031709E+00   -1.0808868101558855E+00    1.9134631910386080E+00
Cd   -3.7992822895321527E+00    2.7154724279717235E+00    1.9868174025002754E+00
Cd    4.3576909809575000E+00    1.4966500123116969E-01   -2.0246428670538630E+00
Cd    2.3050294035986321E+00    4.2492096571231599E+00   -2.3243651699025221E+00
Cd    4.5091797721211364E+00   -2.6814268226592040E+00    8.6988914337076195E-01
Cd    2.1668184688468606E+00    1.2813524938955687E+00    1.2597220571203582E+00
Cd   -3.6805189834882535E-01    4.7745065517630687E+00    1.5700318060983041E+00
Cd    2.2809106007975033E+00   -1.3776723224316902E+00    4.4930631533372036E+00
Cd   -3.2424679824904967E-01    2.1734459815772760E+00    4.7022646614883028E+00
Se   -1.1727362438627276E+00   -3.3069400018872379E+00   -3.1229677089095285E+00
Se   -3.5847683879775909E+00    5.7266274599611444E-01   -2.8666960390049780E+00
Se   -3.5691240741701789E+00   -2.2241401799479710E+00    5.0936357940723143E-01
Se    2.4056098235948724E+00   -6.1561598902539938E-01   -3.6366635765390787E+00
Se    4.9880020416436599E-01    3.0792382294807479E+00   -3.5274823062933978E+00
Se    2.3628098886428157E+00   -3.6835624829462872E+00   -1.8718318901851444E-01
Se   -2.2020519439146460E-01    2.4794982934570425E-01   -1.3369201133175751E-01
Se   -2.2610546883791613E+00    3.8394020354752922E+00    1.3374396412690651E-01
Se    1.3910537498613870E-01   -2.9046015184570639E+00    2.8890983814008124E+00
Se   -2.5102402759827132E+00    8.9372066000799333E-01    3.6106101659253729E+00
Se    3.6350303452662236E+00    2.2796633863467211E+00   -5.9001718137162895E-01
Se    3.8748960528982526E+00   -6.1747258191699061E-01    2.6167081456657684E+00
Se    1.3528403203496198E+00    3.1933198772364890E+00    2.8002029624058786E+00
Cd   -4.4617428179823468E+00   -4.2979306737621936E+00   -6.9281929796681272E+00
Cd   -6.1099392740952618E+00   -4.8448014185284510E-01   -6.7034736777900594E+00
Cd   -4.0699154867184220E+00   -7.2689298435984862E+00   -3.6481208001215069E+00
Cd   -5.9403565190197813E+00   -3.6454812730396173E+00   -3.1843340277232590E+00
Cd   -8.5807942202366885E+00    6.9923205115225529E-01   -2.8359368444307451E+00
Cd   -6.1994022512142788E+00   -6.4663754032058529E+00   -1.9385486149000991E-01
Cd   -8.8865363146427185E+00   -2.6380892883049034E+00    3.4453266230859741E-01
Cd   -8.3744587350653577E-01   -2.5438339188808521E+00   -7.8430045453303014E+00
Cd   -2.9976435531237842E+00    1.6657484421477029E+00   -7.5162107424828992E+00
Cd   -7.0063060748405270E-01   -5.3921082299637755E+00   -4.8413019393772512E+00
Cd   -5.1479716011433245E+00    2.9753925600363171E+00   -4.1889907453125703E+00
Cd   -6.4608364073904734E-01   -8.1434508227536533E+00   -1.1359908748770078E+00
Cd   -7.3157705352992091E+00    3.1206937585282852E+00   -5.6194444798944876E-01
Cd   -3.3394554840411819E+00   -7.1901337798105898E+00    2.4626715827565144E+00
Cd   -5.9871683711869537E+00   -3.4162945568222947E+00    2.8173180637605171E+00
Cd   -7.1248639879796061E+00    5.4991620308453226E-01    3.2290937062709104E+00
Cd    2.7862904055579070E+00   -4.2585041888413738E-01   -8.0753713924283126E+00
Cd    5.2780849379191752E-01    3.4148290774861829E+00   -8.3771846164691528E+00
Cd    3.4227228988501848E+00   -3.1484703626066475E+00   -5.6498298628605363E+00
Cd   -1.3024345043476402E+00    5.0121352124060143E+00   -5.0783022257956247E+00
Cd    3.3295734955899556E+00   -6.3774200351178667E+00   -2.7165510168131308E+00
Cd   -4.1463411125105969E+00    6.0014301443357674E+00   -1.3131376039928002E+00
Cd    2.6392896493175284E+00   -8.5549496146291659E+00    1.1619509458181247E+00
Cd   -6.2282845485921250E+00    5.8793483666800741E+00    2.1729565173280041E+00
Cd    3.0624313041382301E-01   -7.6563621271308282E+00    4.9513146132109718E+00
Cd   -2.0513255336302545E+00   -4.2538050880632259E+00    5.4056607888214652E+00
Cd   -4.1744670611821029E+00   -4.5967114208458076E-01    6.1719199657421067E+00
Cd   -6.2178238047959562E+00    3.2026304391039471E+00    5.6433152953481516E+00
Cd    7.0560762374912516E+00   -8.5565750956146314E-01   -5.6917640945622301E+00
Cd    4.4758158724923387E+00    3.0486762891048049E+00   -5.2105811046333077E+00
Cd    1.8275031895113962E+00    7.0501238571590186E+00   -5.1145914095902292E+00
Cd    6.7717619369653530E+00   -3.5859978492790239E+00   -2.8288695500499754E+00
Cd   -1.5176856613366882E-01    8.0784097991357111E+00   -1.6844116645661991E+00
Cd    6.4602215795081035E+00   -6.2086524696546679E+00   -3.0958542275798168E-01
Cd   -2.5475552037761671E+00    8.8968173169684963E+00    1.6289039286884572E+00
Cd    3.4978266859098714E+00   -4.5909151514283417E+00    3.2904362278414649E+00
Cd   -2.5194736359323455E+00    4.9965600262537997E+00    4.7777511755399020E+00
Cd    1.7367518273809235E+00   -4.1645794477674940E+00    7.5332383131188365E+00
Cd    4.1406538892112633E-02   -6.6526102880884908E-01    8.3712944874277113E+00
Cd   -2.3780200426698075E+00    2.4253936956732471E+00    8.2825834907629794E+00
Cd    8.3542502039692703E+00    2.3123627210052553E+00   -2.7082929753716005E+00
Cd    5.9582488687966499E+00    6.5174597471720519E+00   -2.6820789283258333E+00
Cd    8.3460058234820362E+00   -2.7267750883162867E-01   -2.4660628805317627E-03
Cd    6.1163101948684986E+00    3.7073611477462962E+00    4.4890477788160482E-01
Cd    3.5821050697246397E+00    7.4628833024056753E+00    9.5960692432195172E-01
Cd    7.9210647624966493E+00   -3.3612519984814910E+00    3.2557277336230266E+00
Cd    6.0122847379425117E+00    8.1194896032329811E-01    3.7241690292462639E+00
Cd    3.9187496445874643E+00    4.4870709072541803E+00    4.2472083201778501E+00
Cd    8.6516431646664971E-01    7.9861278981049981E+00    4.1165496202796472E+00
Cd    5.3382606081526331E+00   -1.5969810913093090E+00    6.7540394361068703E+00
Cd    3.4927076220030959E+00    2.4315354986414155E+00    7.7382478777048220E+00
Cd    8.6018991807667222E-01    5.4575361418471893E+00    7.1350524347422928E+00
Se   -3.1261093425588333E+00   -6.2413818742323501E+00   -5.8443493501240926E+00
Se   -5.0340002353172197E+00   -2.4514575049249396E+00   -5.3636920281583267E+00
Se   -7.0614842450795869E+00    1.1116614254276183E+00   -4.9054671637824869E+00
Se   -4.6332354201871171E+00   -5.3675287482248830E+00   -2.0140328223806687E+00
Se   -7.4269645853183075E+00   -1.7031144882364020E+00   -1.5371758753837981E+00
Se   -7.6269382499552325E+00   -4.6692261741190846E+00    1.1185895198896325E+00
Se    1.0486411401870526E+00   -3.7483695806679491E+00   -6.3693899366762414E+00
Se   -1.0970571955202835E+00   -1.7802037730311587E-01   -6.7000570000900366E+00
Se   -3.2516141631720297E+00    3.5697417008317300E+00   -5.9965359622339482E+00
Se    7.6600664248530093E-01   -6.9656806519897030E+00   -3.1321595566763891E+00
Se   -6.0154682795618841E+00    4.4272596771569823E+00   -2.1759448907542587E+00
Se   -1.4735237360508022E+00   -6.4339624427571929E+00    4.7042716695346237E-01
Se   -5.9376414265501101E+00    1.6621815121625536E+00    1.0188187138994902E+00
Se   -3.9951196926272226E+00   -5.1004694268849819E+00    3.8850179878691882E+00
Se   -5.9695135516171165E+00   -1.5030197797827116E+00    4.4841894106765627E+00
Se    4.8519668145059827E+00   -1.6725204652628225E+00   -7.2398809640226407E+00
Se    2.4521747957990008E+00    2.0894280212715932E+00   -7.1512331146556738E+00
Se    5.0153330291293774E-01    5.8231187096979520E+00   -6.8742749222812680E+00
Se    4.7275502448195557E+00   -4.8398122783556561E+00   -4.1180255287944094E+00
Se   -1.8000360376207094E+00    6.7194194076974769E+00   -3.1253192573409736E+00
Se    4.3260240810338688E+00   -7.5823008590062706E+00   -6.4551633396438357E-01
Se   -4.6577536204453001E+00    7.4007647563502577E+00    8.8723940126507972E-01
Se    2.0616851158339733E+00   -6.8388451512112276E+00    3.1387136556012543E+00
Se   -4.8967307075286834E+00    4.4777638809172293E+00    3.9465984182252951E+00
Se   -2.3766173585538616E-01   -5.7000624043010424E+00    6.6936402877027490E+00
Se   -1.7103508540661072E+00   -1.8496424724657039E+00    6.5826954465245535E+00
Se   -4.5670472244318487E+00    1.9980944990772329E+00    7.0963119427421653E+00
Se    6.3704917092751021E+00    1.2503275376398746E+00   -4.4433181006245679E+00
Se    4.0848862260806147E+00    5.3555029599537534E+00   -4.1478683083929715E+00
Se    5.9648946131522207E+00   -1.6777920648849636E+00   -1.1525594183873786E+00
Se    1.8064580395779926E+00    6.4355115653173334E+00   -7.3949010935770709E-01
Se    5.8389331270551308E+00   -4.8741276146312105E+00    2.1653480726182992E+00
Se   -1.2046297660603129E+00    6.9429985834782535E+00    2.8835052812671309E+00
Se    3.3962268426098525E+00   -3.2553892592781972E+00    5.9512352764832963E+00
Se    1.4508644700475621E+00    4.8841022071647927E-01    6.2847779593872035E+00
Se   -1.0287910196288412E+00    3.7404458664033919E+00    6.5172942843001014E+00
Se    7.2136539994013296E+00    4.4279293269617854E+00   -1.9704733328655075E+00
Se    7.3554915695576062E+00    1.7128229056903177E+00    1.7756452269872742E+00
Se    5.1064011007385943E+00    5.6481213265450574E+00    2.0233805243085436E+00
Se    7.4697771011113412E+00   -2.2235776067150606E+00    5.3420624569648050E+00
Se    4.7804794510323294E+00    2.3911124102261430E+00    5.4704563370970725E+00
Se    2.5145784773405557E+00    6.2404673095365499E+00    5.4336123931198541E+00
C331   -2.0330379442720643E+00    9.2269337624221439E+00    6.7696816436241711E+00
C2O3   -1.9356678296083041E+00    7.7104694875881066E+00    6.4901917272227534E+00
O2D2   -7.7969843211510637E-01    7.1506126769566594E+00    6.6846982279802356E+00
O2D2   -2.8908847456594939E+00    7.1382988126937414E+00    5.9633671028796948E+00
HGA3   -1.9424787041919098E+00    9.5370804302451138E+00    7.8281979115114204E+00
HGA3   -2.9641190117097125E+00    9.7166437536500894E+00    6.4508253131298625E+00
HGA3   -1.2413625303919278E+00    9.8711948328563359E+00    6.3078085007937652E+00
C331    2.8550391295265838E+00    1.0742635045964152E+01   -3.2851776587819121E+00
C2O3    2.3658092611968597E+00    9.3874369686452717E+00   -3.6892860375811756E+00
O2D2    3.1361554053362530E+00    8.7907020517674912E+00   -4.5430997011606413E+00
O2D2    1.2927626972189739E+00    8.8994528290048542E+00   -3.2707676497974250E+00
HGA3    3.6248116307841047E+00    1.1114553104961212E+01   -3.9941109591688040E+00
HGA3    3.2959391795509525E+00    1.0641668082620376E+01   -2.2857474577062944E+00
HGA3    1.9836477443595268E+00    1.1453162606082627E+01   -3.2579086767625043E+00
C331   -4.9943839348100427E+00   -5.7158194175207144E-01   -1.0678458880183587E+01
C2O3   -5.3978313302454426E+00   -2.1057685053850020E-01   -9.2344136330000257E+00
O2D2   -6.6729005608519607E+00   -2.0224097031485969E-01   -9.0039191085954684E+00
O2D2   -4.5943873652025733E+00    9.7784737603941033E-02   -8.3505731580753864E+00
HGA3   -5.1985505829949803E+00    2.7036437106160888E-01   -1.1373073824279837E+01
HGA3   -5.7012992531314444E+00   -1.4017815466093329E+00   -1.0905888220465627E+01
HGA3   -3.9337597787034335E+00   -1.0062080378916651E+00   -1.0619438564086686E+01
C331   -1.1553277412068559E+00   -4.1783117915934094E+00    1.0221647554361578E+01
C2O3   -4.8895834946164468E-01   -2.9157128092028337E+00    1.0067450205175879E+01
O2D2   -1.1616088104760987E+00   -1.8102607711126346E+00    1.0228292920786435E+01
O2D2    6.9436182808447244E-01   -3.0544539698091411E+00    9.7854562576567670E+00
HGA3   -9.4410128963828410E-01   -4.8428354441765480E+00    9.3589697025043286E+00
HGA3   -2.2199200899354037E+00   -3.9540475996710254E+00    1.0344926668483819E+01
HGA3   -6.8497879843913501E-01   -4.6650645226207113E+00    1.1100053891077089E+01
C331   -8.9658023215670095E+00   -6.6019659113424281E+00   -4.9770532199114523E+00
C2O3   -7.6761178408302202E+00   -6.0956112031979215E+00   -4.4042721195805967E+00
O2D2   -6.8580595031920950E+00   -7.0034615223700474E+00   -4.0299169365901024E+00
O2D2   -7.4067793741206680E+00   -4.8858797555928541E+00   -4.3495035213735518E+00
HGA3   -8.7747529218465115E+00   -7.2564876693368001E+00   -5.8346291092505655E+00
HGA3   -9.5926319238232338E+00   -5.7252879291441632E+00   -5.2812389487754023E+00
HGA3   -9.4835202999559662E+00   -7.2585035888897131E+00   -4.2223927969667194E+00
C331    1.1907744191127296E+01   -1.8375585047587253E+00    1.9158930679404005E+00
C2O3    1.0473751486649247E+01   -2.4148841121505149E+00    1.8236125239044885E+00
O2D2    1.0342954844311709E+01   -3.4948905177896412E+00    2.5016825329980281E+00
O2D2    9.6283938428212572E+00   -1.7980813662244890E+00    1.2001795770883652E+00
HGA3    1.2441630096619448E+01   -2.0904305570034549E+00    1.0175540750890535E+00
HGA3    1.2380371405538185E+01   -2.0255000259997460E+00    2.8855835619256736E+00
HGA3    1.1632840180206740E+01   -7.7891207237893956E-01    1.8556630844716917E+00
C331   -1.0563050765565873E+01    3.0318933139753828E+00    4.6135725538380088E+00
C2O3   -9.2342539266785888E+00    2.4028109053926001E+00    4.4265855997394405E+00
O2D2   -8.4620626118781601E+00    2.4841774622636126E+00    5.3967935820679225E+00
O2D2   -9.0160942615061597E+00    2.0402109711407563E+00    3.2533669832492675E+00
HGA3   -1.1309161065561053E+01    2.5422016980470667E+00    3.9959526319437253E+00
HGA3   -1.0580969439198405E+01    4.0590381161005640E+00    4.2019600687846728E+00
HGA3   -1.0956931872716750E+01    3.0052275344345163E+00    5.6572151285718810E+00
C331    2.1068662625442842E+00    1.1552076247664436E+01    2.3077161868234972E+00
C2O3    1.6159922544313230E+00    1.0126622810441315E+01    2.5348448190987276E+00
O2D2    3.9458834373191082E-01    9.9979919570964029E+00    3.0547424892356689E+00
O2D2    2.3776934149613118E+00    9.1797859811133122E+00    2.3161953143599354E+00
HGA3    1.3778228268319972E+00    1.1962937244293533E+01    1.5410921752407272E+00
HGA3    3.1177546470161954E+00    1.1588691266563679E+01    1.8856970223487555E+00
HGA3    2.1419084628778515E+00    1.2261357730491888E+01    3.1391822058566774E+00
C331   -2.9996475246543448E+00   -1.0516412044594079E+01    3.5626393841800335E+00
C2O3   -1.9208775024975604E+00   -9.5902182022415481E+00    3.9856550689460288E+00
O2D2   -7.4895552966287360E-01   -1.0017022487944709E+01    4.1742471252697610E+00
O2D2   -2.3113155073772624E+00   -8.4518553877864022E+00    4.1145265478711401E+00
HGA3   -3.9964555409173235E+00   -1.0017815982767667E+01    3.6739041292179699E+00
HGA3   -3.1585003995596477E+00   -1.1317903697480586E+01    4.3166504028680404E+00
HGA3   -2.9017404860430678E+00   -1.0952863895537835E+01    2.5135999705394285E+00
C331    2.2919063767382588E+00    4.8783037388537940E+00    1.1080472504999893E+01
C2O3    2.6368559635447677E+00    4.4430349453820215E+00    9.6788254195945420E+00
O2D2    1.6416108740396298E+00    4.1661949861364844E+00    8.9404989101529111E+00
O2D2    3.7982364562097741E+00    4.2983744776598867E+00    9.2895080547712325E+00
HGA3    1.1474462156616194E+00    5.2353295443197547E+00    1.1077585916403905E+01
HGA3    2.9511612270213932E+00    5.7481866830745396E+00    1.1268044969517149E+01
HGA3    2.5507716035382053E+00    4.1168009398879297E+00    1.1841225219485112E+01
C331   -1.3180464549279196E+00    1.2132564330299900E+01   -1.2673614842206464E+00
C2O3   -1.2699344310859799E+00    1.0679310918951563E+01   -5.7131164015764579E-01
O2D2   -2.2184350775278033E-01    1.0026651184198242E+01   -4.9128039818895969E-01
O2D2   -2.3496698878225297E+00    1.0319174124037085E+01   -2.1126706013701087E-02
HGA3   -2.4136013500615578E+00    1.2224907508156504E+01   -1.6204777747825110E+00
HGA3   -8.3849326088411635E-01    1.2179937336741762E+01   -2.2292490891991275E+00
HGA3   -1.1045844370532485E+00    1.2917108069275802E+01   -6.3509226750663961E-01
C331   -3.0977893216419421E+00   -4.4178665134966204E+00   -1.1157012132900268E+01
C2O3   -3.5058930715116641E+00   -4.0018928818045421E+00   -9.7669031252334886E+00
O2D2   -4.5310650710954690E+00   -4.5223726301922769E+00   -9.2696643692340004E+00
O2D2   -2.6628617794417337E+00   -3.1691746828337060E+00   -9.3050101636193858E+00
HGA3   -3.8944281520916397E+00   -3.9846789551016402E+00   -1.1801807048617844E+01
HGA3   -3.2219057412308696E+00   -5.5633782083684924E+00   -1.1154578205720552E+01
HGA3   -2.0261427029547963E+00   -4.2177643985737143E+00   -1.1390832746629552E+01
C331   -6.6922114879092121E+00   -1.0057715728609598E+01    1.2517670708630833E+00
C2O3   -5.9085577551703663E+00   -8.9576554005824018E+00    6.1722632667497856E-01
O2D2   -5.3202622872041676E+00   -8.1389881701890996E+00    1.4132600808895843E+00
O2D2   -5.9269462386909009E+00   -8.8714674877497384E+00   -6.2405803211704958E-01
HGA3   -6.2029794305135919E+00   -1.1060859018518316E+01    1.2295629117005740E+00
HGA3   -7.6921982168251679E+00   -9.9767427475195039E+00    7.6642454820828110E-01
HGA3   -6.8491635209579531E+00   -9.8347164540556307E+00    2.3593712186366096E+00
C331   -1.0271190094812171E+01   -1.6136738253921286E+00    4.2640591194754522E+00
C2O3   -9.8201011519221293E+00   -1.6234545606297106E+00    2.8193042660603780E+00
O2D2   -1.0541356264216933E+01   -2.3803297506368821E+00    2.1204217750865788E+00
O2D2   -8.7760474158605746E+00   -9.8734028325206913E-01    2.5252006120674766E+00
HGA3   -1.0707199880517820E+01   -2.5826854287850693E+00    4.6197600712279083E+00
HGA3   -1.1117917599523837E+01   -9.1226080720430180E-01    4.2967478697025543E+00
HGA3   -9.4245275070924635E+00   -1.2525539527352574E+00    4.9220558064250515E+00
C331    4.7425882471072383E+00   -2.4525960861518309E-01    1.0877579300878237E+01
C2O3    4.4093774501050307E+00   -4.0031855899631402E-01    9.4356601288639812E+00
O2D2    4.3543226164112356E+00    6.3829817733466188E-01    8.7079376223415146E+00
O2D2    4.2815943331615118E+00   -1.5489568353410972E+00    9.0321703265878668E+00
HGA3    5.7750654305857791E+00    1.3233493909240149E-01    1.0977776475822093E+01
HGA3    4.6743992116871622E+00   -1.2072885070422688E+00    1.1422294733975589E+01
HGA3    4.1431443460980191E+00    6.1210116068981979E-01    1.1325535304247502E+01
C331    9.5703109008592300E+00   -6.2272705889691746E+00   -2.8537412727414684E+00
C2O3    8.7581674730320334E+00   -6.0032729823987063E+00   -1.6448008090080628E+00
O2D2    8.2069954224634696E+00   -4.7982399795101500E+00   -1.6143227590900537E+00
O2D2    8.6040865538408280E+00   -6.9330727335806603E+00   -8.6438642714810676E-01
HGA3    9.3013347674261873E+00   -5.6867208745239974E+00   -3.7838694221891003E+00
HGA3    9.4123228759353648E+00   -7.3572718972360898E+00   -3.0389337354324488E+00
HGA3    1.0618765289818318E+01   -5.9974388420822118E+00   -2.5736482366680398E+00
C331   -5.8726129253657541E-02   -1.1839936983717273E+01    8.8551621746837539E-01
C2O3    8.4028059820796508E-01   -1.0813489162038998E+01    3.1818119033276104E-01
O2D2    2.0271580003521015E+00   -1.1250937188201103E+01    1.9970976067574089E-01
O2D2    4.8368465651589676E-01   -9.6883360343849603E+00    5.4335289392087378E-02
HGA3    4.7557174032238053E-01   -1.2806481464372858E+01    1.0175756749692282E+00
HGA3   -9.0508532865831492E-01   -1.2019268285821981E+01    1.1462643491089268E-01
HGA3   -3.7929171235373149E-01   -1.1611620608045957E+01    1.9375165703368988E+00
C331    1.0409391924863124E+01   -2.4929364814013208E+00   -2.8683408034082025E+00
C2O3    9.1138095025987340E+00   -1.6214267768244377E+00   -3.0628122531539330E+00
O2D2    8.9294844548647507E+00   -6.8688376269322782E-01   -2.2707171120533451E+00
O2D2    8.3243712690411655E+00   -2.0287568634201469E+00   -3.9532577860701945E+00
HGA3    1.1006284388114453E+01   -2.2762772860955236E+00   -1.9195412331310657E+00
HGA3    1.1098169001081832E+01   -2.3045703354409559E+00   -3.7166894466408857E+00
HGA3    1.0069454523913269E+01   -3.5304793118276940E+00   -2.8452210772556845E+00
C331    6.9055915079577677E+00    9.9498976619401311E+00   -1.6381764646136912E-01
C2O3    6.3367216664570831E+00    8.7960527680097957E+00   -8.3582950546449475E-01
O2D2    5.1104154984247048E+00    8.5699030406112229E+00   -5.5768473503968863E-01
O2D2    7.0938513283943871E+00    8.1623857741214660E+00   -1.5617231815047432E+00
HGA3    6.4161352699202867E+00    1.0013019074336777E+01    8.1244450460332052E-01
HGA3    6.7548601304567804E+00    1.0875330364998375E+01   -7.6632128006990796E-01
HGA3    7.9681577045686769E+00    9.6732446785518729E+00    2.7925700224941809E-03
C331   -1.1430333837379248E+01    1.2746239097554279E+00    2.9283466573636369E-01
C2O3   -1.0320754460999686E+01    1.2028007078493166E+00   -7.7327957510924350E-01
O2D2   -9.2676247789078268E+00    1.9234009585216949E+00   -4.8706414998625908E-01
O2D2   -1.0430380786712808E+01    4.6910267163261460E-01   -1.7426918759116288E+00
HGA3   -1.1890737057498642E+01    2.2664397435038643E+00    3.2461664788708078E-01
HGA3   -1.1048858997182332E+01    9.4936571682857362E-01    1.3134708783902458E+00
HGA3   -1.2226806827968732E+01    6.4804528506451231E-01   -1.4659008395412959E-01
C331   -3.2642788991419001E+00   -1.1308964503654643E+01   -2.9127073142618651E+00
C2O3   -2.9915932530783422E+00   -9.8745980444057047E+00   -2.6103685815223190E+00
O2D2   -2.8465823241032782E+00   -9.6116084475888304E+00   -1.3631574528350114E+00
O2D2   -2.7730851414609083E+00   -9.2179750989144988E+00   -3.6127888506090202E+00
HGA3   -3.3460741191618646E+00   -1.1866242062696761E+01   -2.0097924937617320E+00
HGA3   -2.4112865749599721E+00   -1.1713932736005118E+01   -3.4322725746191809E+00
HGA3   -4.1333423622501391E+00   -1.1504508460515718E+01   -3.5647208496064264E+00
C331   -1.7568299244878556E+00    1.0209741499634390E+00   -1.1346715246002622E+01
C2O3   -1.4807756883501155E+00    2.2965221722888134E+00   -1.0572100163257613E+01
O2D2   -4.0340631469230354E-01    2.8902991354951344E+00   -1.0905414441784641E+01
O2D2   -2.0995549322265612E+00    2.5486295278165931E+00   -9.5139302739916243E+00
HGA3   -2.8541150514670650E+00    1.0413498838036814E+00   -1.1550323060021578E+01
HGA3   -1.5525824086559974E+00    4.1878728672636527E-02   -1.0794174816576158E+01
HGA3   -1.1990221644813266E+00    9.9392031719810192E-01   -1.2314289028853850E+01
C331    2.0514135108228300E+00   -1.9170777587469854E+00   -1.1989427659672089E+01
C2O3    1.3065462094391485E+00   -2.0475521220915867E+00   -1.0712458283540553E+01
O2D2    1.7738098268526175E+00   -1.2813969408497090E+00   -9.8217262901268594E+00
O2D2    2.5972630920594775E-01   -2.7445028222684602E+00   -1.0548946518582198E+01
HGA3    3.1465317837252140E+00   -1.8084476514585015E+00   -1.1744289809705279E+01
HGA3    1.7421611354152498E+00   -1.0054357720561977E+00   -1.2516557504302320E+01
HGA3    1.9228164674489778E+00   -2.7386350045768526E+00   -1.2705790417121658E+01
C331    1.2770798448430236E+01    7.3116476369456940E-01   -1.5818305793115768E+00
C2O3    1.1337253472134323E+01    1.3672231566238662E+00   -1.5968821832822864E+00
O2D2    1.0628834505450140E+01    1.2592019035694473E+00   -5.1704946219791270E-01
O2D2    1.1001995228364340E+01    1.8537546093824735E+00   -2.6192750647365473E+00
HGA3    1.2824156752124150E+01   -4.2688001915824635E-02   -8.3305544976871482E-01
HGA3    1.3247094092629810E+01    1.6568824349983740E+00   -1.2084051186729508E+00
HGA3    1.3024652066454390E+01    4.0161935061925896E-01   -2.5877682274010132E+00
C331   -2.9441452170073912E-01    1.4480988978093190E+00    1.1939485142267685E+01
C2O3   -4.5301447598245342E-01    1.9835394558034070E+00    1.0538304036403906E+01
O2D2    3.1030767738187476E-01    1.2251976179527437E+00    9.7620232852549318E+00